LAMMPS data file via write_data, version 30 Jul 2021, timestep = 202

1771 atoms
5 atom types
1104 bonds
1 bond types
552 angles
1 angle types

0 30 xlo xhi
0 30 ylo yhi
-1 71 zlo zhi

Masses

1 28.0855
2 15.9994
3 1.0079
4 87.62
5 35.453

Pair Coeffs # lj/cut/coul/long

1 0.1554 3.1655
2 0.1553 3.166
3 0 1
4 0.1 3
5 0.1 4

Bond Coeffs # harmonic

1 554.135 1

Angle Coeffs # harmonic

1 45.7696 109.47

Atoms # full

1 0 1 -0.12 0 0 0 0 0 0
6 0 1 -0.12 3 3 0 0 0 0
51 0 1 -0.12 4.5 1.5 3 0 0 0
56 0 1 -0.12 1.5 4.5 3 0 0 0
2 0 1 -0.12 6 0 0 0 0 0
7 0 1 -0.12 9 3 0 0 0 0
52 0 1 -0.12 10.5 1.5 3 0 0 0
57 0 1 -0.12 7.5 4.5 3 0 0 0
3 0 1 -0.12 12 0 0 0 0 0
8 0 1 -0.12 15 3 0 0 0 0
53 0 1 -0.12 16.5 1.5 3 0 0 0
58 0 1 -0.12 13.5 4.5 3 0 0 0
4 0 1 -0.12 18 0 0 0 0 0
9 0 1 -0.12 21 3 0 0 0 0
54 0 1 -0.12 22.5 1.5 3 0 0 0
59 0 1 -0.12 19.5 4.5 3 0 0 0
5 0 1 -0.12 24 0 0 0 0 0
10 0 1 -0.12 27 3 0 0 0 0
55 0 1 -0.12 28.5 1.5 3 0 0 0
60 0 1 -0.12 25.5 4.5 3 0 0 0
11 0 1 -0.12 0 6 0 0 0 0
16 0 1 -0.12 3 9 0 0 0 0
61 0 1 -0.12 4.5 7.5 3 0 0 0
66 0 1 -0.12 1.5 10.5 3 0 0 0
12 0 1 -0.12 6 6 0 0 0 0
17 0 1 -0.12 9 9 0 0 0 0
62 0 1 -0.12 10.5 7.5 3 0 0 0
67 0 1 -0.12 7.5 10.5 3 0 0 0
13 0 1 -0.12 12 6 0 0 0 0
18 0 1 -0.12 15 9 0 0 0 0
63 0 1 -0.12 16.5 7.5 3 0 0 0
68 0 1 -0.12 13.5 10.5 3 0 0 0
14 0 1 -0.12 18 6 0 0 0 0
19 0 1 -0.12 21 9 0 0 0 0
64 0 1 -0.12 22.5 7.5 3 0 0 0
69 0 1 -0.12 19.5 10.5 3 0 0 0
15 0 1 -0.12 24 6 0 0 0 0
20 0 1 -0.12 27 9 0 0 0 0
65 0 1 -0.12 28.5 7.5 3 0 0 0
70 0 1 -0.12 25.5 10.5 3 0 0 0
21 0 1 -0.12 0 12 0 0 0 0
26 0 1 -0.12 3 15 0 0 0 0
71 0 1 -0.12 4.5 13.5 3 0 0 0
76 0 1 -0.12 1.5 16.5 3 0 0 0
22 0 1 -0.12 6 12 0 0 0 0
27 0 1 -0.12 9 15 0 0 0 0
72 0 1 -0.12 10.5 13.5 3 0 0 0
77 0 1 -0.12 7.5 16.5 3 0 0 0
23 0 1 -0.12 12 12 0 0 0 0
28 0 1 -0.12 15 15 0 0 0 0
73 0 1 -0.12 16.5 13.5 3 0 0 0
78 0 1 -0.12 13.5 16.5 3 0 0 0
24 0 1 -0.12 18 12 0 0 0 0
29 0 1 -0.12 21 15 0 0 0 0
74 0 1 -0.12 22.5 13.5 3 0 0 0
79 0 1 -0.12 19.5 16.5 3 0 0 0
25 0 1 -0.12 24 12 0 0 0 0
30 0 1 -0.12 27 15 0 0 0 0
75 0 1 -0.12 28.5 13.5 3 0 0 0
80 0 1 -0.12 25.5 16.5 3 0 0 0
31 0 1 -0.12 0 18 0 0 0 0
36 0 1 -0.12 3 21 0 0 0 0
81 0 1 -0.12 4.5 19.5 3 0 0 0
86 0 1 -0.12 1.5 22.5 3 0 0 0
32 0 1 -0.12 6 18 0 0 0 0
37 0 1 -0.12 9 21 0 0 0 0
82 0 1 -0.12 10.5 19.5 3 0 0 0
87 0 1 -0.12 7.5 22.5 3 0 0 0
33 0 1 -0.12 12 18 0 0 0 0
38 0 1 -0.12 15 21 0 0 0 0
83 0 1 -0.12 16.5 19.5 3 0 0 0
88 0 1 -0.12 13.5 22.5 3 0 0 0
34 0 1 -0.12 18 18 0 0 0 0
39 0 1 -0.12 21 21 0 0 0 0
84 0 1 -0.12 22.5 19.5 3 0 0 0
89 0 1 -0.12 19.5 22.5 3 0 0 0
35 0 1 -0.12 24 18 0 0 0 0
40 0 1 -0.12 27 21 0 0 0 0
85 0 1 -0.12 28.5 19.5 3 0 0 0
90 0 1 -0.12 25.5 22.5 3 0 0 0
41 0 1 -0.12 0 24 0 0 0 0
46 0 1 -0.12 3 27 0 0 0 0
91 0 1 -0.12 4.5 25.5 3 0 0 0
96 0 1 -0.12 1.5 28.5 3 0 0 0
42 0 1 -0.12 6 24 0 0 0 0
47 0 1 -0.12 9 27 0 0 0 0
92 0 1 -0.12 10.5 25.5 3 0 0 0
97 0 1 -0.12 7.5 28.5 3 0 0 0
43 0 1 -0.12 12 24 0 0 0 0
48 0 1 -0.12 15 27 0 0 0 0
93 0 1 -0.12 16.5 25.5 3 0 0 0
98 0 1 -0.12 13.5 28.5 3 0 0 0
44 0 1 -0.12 18 24 0 0 0 0
49 0 1 -0.12 21 27 0 0 0 0
94 0 1 -0.12 22.5 25.5 3 0 0 0
99 0 1 -0.12 19.5 28.5 3 0 0 0
45 0 1 -0.12 24 24 0 0 0 0
50 0 1 -0.12 27 27 0 0 0 0
95 0 1 -0.12 28.5 25.5 3 0 0 0
100 0 1 -0.12 25.5 28.5 3 0 0 0
101 1 2 -0.82 2.3324576834942263 3.1059746853840213 5.691493900971169 0 0 0
102 1 3 0.41 1.9060641688860425 2.70915524018194 4.865820266761313 0 0 0
103 1 3 0.41 3.2349519673945357 2.6551298390718734 5.790377741828407 0 0 0
104 2 2 -0.82 5.0770071378806785 2.447551776434063 5.914120260686354 0 0 0
105 2 3 0.41 5.282845204700288 3.3753846766119233 5.538716429448353 0 0 0
106 2 3 0.41 5.234243821991087 1.8180631850477502 5.136522894900957 0 0 0
128 10 2 -0.82 2.855257172628226 5.758663057447213 5.176442334168174 0 0 0
129 10 3 0.41 2.5544758420903273 4.847041806913157 5.53017036161885 0 0 0
130 10 3 0.41 2.5112170891527397 5.743725249155788 4.221331327758273 0 0 0
131 11 2 -0.82 5.502315217054607 5.000182647805239 5.031722749035063 0 0 0
132 11 3 0.41 5.683897841685566 4.976528740812554 4.033026693545853 0 0 0
133 11 3 0.41 4.562651974878022 5.390280156702077 5.108163344261809 0 0 0
107 3 2 -0.82 8.659163135549743 1.6171247423356714 8.653894626179184 0 0 0
108 3 3 0.41 8.038217873925154 1.2030315597950938 7.979169732671986 0 0 0
109 3 3 0.41 8.05880371465724 2.0171326263134204 9.377660524843199 0 0 0
110 4 2 -0.82 11.012706821563263 2.652671893171007 7.868758392467079 0 0 0
111 4 3 0.41 10.912169821698127 2.567247833391546 6.8669766918552675 0 0 0
112 4 3 0.41 10.188355510239628 2.160510486254219 8.236727422636223 0 0 0
134 12 2 -0.82 8.062587880771193 5.23910091130445 5.988909176034412 0 0 0
135 12 3 0.41 7.078323302256783 5.079610830568247 5.752320067723536 0 0 0
136 12 3 0.41 8.551779641277818 4.886167717462393 5.177295847966945 0 0 0
137 13 2 -0.82 9.240295043840867 4.983788733478789 8.49759526767812 0 0 0
138 13 3 0.41 9.833650392763337 4.182980300654697 8.32580847525457 0 0 0
139 13 3 0.41 8.783742272449913 5.132335645275116 7.592755147560622 0 0 0
352 84 3 0.41 12.039828311771151 2.963553837898353 9.770187461712693 0 0 0
378 93 3 0.41 10.30257759466359 5.548860698021449 9.843071296836012 0 0 0
113 5 2 -0.82 13.862087566070416 2.600877939067604 7.476118342409491 0 0 0
114 5 3 0.41 12.860646069593823 2.645301313724451 7.643896071467412 0 0 0
115 5 3 0.41 13.97204181806949 2.105721850883498 6.603071280772363 0 0 0
116 6 2 -0.82 18.82569519263917 0.9108941991216529 4.96412925581095 0 0 0
117 6 3 0.41 18.027468937421943 1.10364091749861 4.368934820633881 0 0 0
118 6 3 0.41 19.548159866292014 0.6872486258249699 4.291176787347654 0 0 0
140 14 2 -0.82 15.326961163280608 4.91424158507571 7.176966073881336 0 0 0
141 14 3 0.41 15.199819066185947 5.169790693739245 6.2086185795592 0 0 0
142 14 3 0.41 14.79174581505169 4.051501260289739 7.297430160705291 0 0 0
143 15 2 -0.82 17.97936678418366 5.0198186722147735 8.016710815745308 0 0 0
145 15 3 0.41 17.031200247173935 5.045342352671748 7.640574052946566 0 0 0
382 94 3 0.41 15.050193650382367 5.7895127110909925 8.651233581483986 0 0 0
119 7 2 -0.82 19.437189709809246 3.3375555825664955 6.335925111000738 0 0 0
120 7 3 0.41 19.636760462459623 3.830373300094758 5.475207967958156 0 0 0
121 7 3 0.41 19.175447437088877 2.4113030207230883 5.995630464806863 0 0 0
123 8 3 0.41 24.356389312306217 0.5413382399994168 7.077995619770818 0 0 0
144 15 3 0.41 18.4772238097147 4.391037171232768 7.388393718753739 0 0 0
146 16 2 -0.82 21.583623748905318 6.0756116452920805 7.971002903540575 0 0 0
147 16 3 0.41 21.84725234543261 6.6646815719369155 7.177617344616338 0 0 0
148 16 3 0.41 20.64054986807312 5.782474465565772 7.754448346382257 0 0 0
150 17 3 0.41 23.863534310840393 3.6749223138206286 6.647886811870309 0 0 0
360 87 3 0.41 20.276335602323595 3.3258528955191626 8.029805630529191 0 0 0
122 8 2 -0.82 24.66995908426641 1.4528628669129064 7.357795644787574 0 0 0
124 8 3 0.41 25.166213524879208 1.795451890809345 6.526171358452008 0 0 0
125 9 2 -0.82 25.74427298253666 2.249493146215202 4.998809799308274 0 0 0
126 9 3 0.41 26.639848770480302 2.0277653372396647 4.587227331074844 0 0 0
127 9 3 0.41 25.199956700371118 2.524480549682923 4.190456261702912 0 0 0
149 17 2 -0.82 23.98119553037264 4.464993482393059 7.271141928903896 0 0 0
151 17 3 0.41 24.862175424005663 4.881768792987933 6.956797478643005 0 0 0
152 18 2 -0.82 26.385364609938097 5.7108824371319376 6.924564698531036 0 0 0
153 18 3 0.41 26.542598607920148 6.703746917904467 7.07908489184214 0 0 0
154 18 3 0.41 26.840577435350912 5.483397616628153 6.0498416679030935 0 0 0
155 19 2 -0.82 3.0796097661339097 8.449572267605818 5.381392608048658 0 0 0
156 19 3 0.41 3.20320152821142 8.661384196032218 4.39598153800295 0 0 0
157 19 3 0.41 2.88415431191004 7.443688932527288 5.377279218043765 0 0 0
158 20 2 -0.82 5.172777391445 8.14176419424151 7.121784870047246 0 0 0
159 20 3 0.41 5.970640065599056 8.118936202779224 6.4772220312294895 0 0 0
160 20 3 0.41 4.351754552916212 8.281063393002547 6.522211789352676 0 0 0
182 28 2 -0.82 1.7523988901281276 10.671442124092732 6.225228417356972 0 0 0
183 28 3 0.41 1.5145881402439978 11.126647575518456 5.357662419214802 0 0 0
184 28 3 0.41 2.1968516031221794 9.798006535966117 5.934890610067259 0 0 0
185 29 2 -0.82 5.042396621226047 11.918143848908427 7.236341265256032 0 0 0
186 29 3 0.41 4.431103895873037 11.515928636361403 6.544128233128857 0 0 0
421 107 3 0.41 5.416475251866957 10.877822613955043 8.526290236047602 0 0 0
161 21 2 -0.82 7.582830630029169 7.953983457078819 5.7878735662853105 0 0 0
162 21 3 0.41 7.844315797819807 6.969019211406206 5.838388263796395 0 0 0
163 21 3 0.41 7.497744742992954 8.14151279719459 4.799643081084537 0 0 0
164 22 2 -0.82 11.582800387736894 9.320351438607819 4.8830404690378275 0 0 0
165 22 3 0.41 12.415637107124649 8.798172458579492 5.183848715098947 0 0 0
166 22 3 0.41 11.065633445243305 8.61963193657155 4.356009852171081 0 0 0
188 30 2 -0.82 9.390390516140442 11.654201026286648 5.041312255970185 0 0 0
189 30 3 0.41 8.79968995761168 12.50607183780344 4.988877640302745 0 0 0
190 30 3 0.41 8.709129399444544 10.927085463860287 4.849858007145224 0 0 0
396 99 3 0.41 8.037252969246765 8.480027119183267 7.575060167041043 0 0 0
1757 0 4 2 11.740454521661935 11.711716997036364 4.34788765316888 0 0 0
167 23 2 -0.82 13.945580318194429 8.094166935740995 5.410718691945903 0 0 0
168 23 3 0.41 14.782355830172488 8.663268749365965 5.528774137737111 0 0 0
169 23 3 0.41 14.116787335728146 7.547937203159696 4.575955959850084 0 0 0
170 24 2 -0.82 15.807246226507266 9.929368284462798 6.2030778505754745 0 0 0
172 24 3 0.41 16.59742567999273 9.977201095060638 5.5766758650001655 0 0 0
191 31 2 -0.82 13.569418408657567 11.534722624203171 5.953712412559622 0 0 0
192 31 3 0.41 14.20736799117536 12.33832109123616 6.023910078308298 0 0 0
193 31 3 0.41 14.23950862756257 10.775564004041906 6.079024986001415 0 0 0
194 32 2 -0.82 16.129209602646625 11.135350878705866 8.654551703814839 0 0 0
196 32 3 0.41 16.266610802384534 10.9593765458582 9.647601688589166 0 0 0
171 24 3 0.41 16.10340953179809 10.355598350260285 7.08301139420991 0 0 0
173 25 2 -0.82 22.448503557907742 7.746825872260794 5.879013960714259 0 0 0
174 25 3 0.41 22.705081627729907 7.107857800685756 5.134608190327292 0 0 0
175 25 3 0.41 22.072098713878216 8.528473505363163 5.3495440552144755 0 0 0
177 26 3 0.41 23.400623695117947 8.431547804623323 7.069356447810025 0 0 0
197 33 2 -0.82 22.39777198789349 10.288198835090693 4.104771127440403 0 0 0
199 33 3 0.41 22.936009993661468 9.953723968536652 3.3134440646208687 0 0 0
176 26 2 -0.82 23.91806483791292 8.908699812122228 7.818767387384543 0 0 0
178 26 3 0.41 24.896263078447753 8.624783396583426 7.706118373326689 0 0 0
179 27 2 -0.82 26.60140435407015 8.318401968123743 7.935013687014124 0 0 0
180 27 3 0.41 26.633890863437053 8.592094732993809 8.921252189415753 0 0 0
181 27 3 0.41 27.434119925797145 8.70044845524261 7.517093689546423 0 0 0
200 34 2 -0.82 23.950546691375415 11.216410334492057 6.087181777555564 0 0 0
202 34 3 0.41 23.865998011048838 10.425095727168335 6.715451161353462 0 0 0
203 35 2 -0.82 27.197388020281352 11.602329531516133 5.155772701750311 0 0 0
204 35 3 0.41 28.163561789900992 11.769031748466556 4.902771529576625 0 0 0
187 29 3 0.41 5.25053784846893 12.849730118060874 6.876250186603861 0 0 0
206 36 2 -0.82 1.6941683281819966 15.555101574518794 7.798712541805966 0 0 0
207 36 3 0.41 1.8388001169821762 15.19478560810626 6.872444072330983 0 0 0
208 36 3 0.41 1.801270778349664 16.567477550164888 7.721223634917372 0 0 0
209 37 2 -0.82 5.383786891775355 14.390788939151276 5.90449314262962 0 0 0
210 37 3 0.41 4.849628203070954 14.519281720135913 5.054458765528987 0 0 0
211 37 3 0.41 5.612235757613097 15.326916497126831 6.236303037877324 0 0 0
233 45 2 -0.82 2.2566303572975204 18.233096093747143 7.59395019656528 0 0 0
234 45 3 0.41 2.7049647602642493 18.0129426375177 6.695770899687328 0 0 0
236 46 2 -0.82 3.2516503701198554 17.741793116009536 5.124784713650565 0 0 0
237 46 3 0.41 2.796816862202867 17.231035802064923 4.379570917816051 0 0 0
445 115 3 0.41 2.608316166808269 15.3862046865815 9.267659407007672 0 0 0
447 116 3 0.41 6.1093033103844006 14.350556586352504 10.762356185933314 0 0 0
212 38 2 -0.82 7.828379094088207 13.754992169915857 4.734585760645143 0 0 0
213 38 3 0.41 7.751230457008655 14.12420306317569 3.7960852252345156 0 0 0
214 38 3 0.41 6.919029220525559 13.914753314873817 5.1601425527186 0 0 0
215 39 2 -0.82 13.282328072821164 13.517752123730347 3.7636499085016624 0 0 0
216 39 3 0.41 14.110068338359179 13.85896977703256 4.23686154389795 0 0 0
217 39 3 0.41 13.323521502500837 14.023082415971732 2.8803674911678185 0 0 0
239 47 2 -0.82 6.569507830586311 16.86328673063914 6.575905490209482 0 0 0
242 48 2 -0.82 12.764208907624061 17.608321957377413 5.758576515222433 0 0 0
218 40 2 -0.82 15.464085053570429 13.426615951311234 5.909425576558932 0 0 0
219 40 3 0.41 16.15245864074421 13.51471953443711 5.174987057918696 0 0 0
220 40 3 0.41 15.943787843406824 13.629192918276768 6.784297672913598 0 0 0
221 41 2 -0.82 16.81509268566362 13.936816219553492 8.315757799953625 0 0 0
222 41 3 0.41 16.90274515454082 14.894527686553541 7.97419692366817 0 0 0
245 49 2 -0.82 14.721147395082866 17.825057970818808 7.589059919071196 0 0 0
246 49 3 0.41 14.928219531762117 18.77268154862934 7.28565538138601 0 0 0
247 49 3 0.41 13.982721561439103 17.55337499523887 6.928296662848819 0 0 0
248 50 2 -0.82 17.13351265806345 16.60660870522077 7.666248169623294 0 0 0
195 32 3 0.41 16.32640325572063 12.123850128184088 8.521036275261073 0 0 0
198 33 3 0.41 21.528458811033566 10.568871536458685 3.667895641552362 0 0 0
201 34 3 0.41 23.346515935516283 10.948432013452974 5.293915133078504 0 0 0
223 41 3 0.41 17.167164725396574 14.035400888343606 9.266719933432187 0 0 0
224 42 2 -0.82 20.87125561147418 15.3171643988151 5.867629306440075 0 0 0
225 42 3 0.41 20.96679418430642 16.31275935486831 5.6447700454661645 0 0 0
226 42 3 0.41 20.308539055946152 14.94467042243484 5.115401539952853 0 0 0
229 43 3 0.41 22.532792491718983 14.77694032163754 5.7385288843013855 0 0 0
251 51 2 -0.82 21.26409876760391 17.883838674053504 5.07303099822744 0 0 0
255 52 3 0.41 23.098987516889963 18.07151158252458 5.355180402538228 0 0 0
463 121 3 0.41 21.19458241452439 14.72797516151412 7.444342825098054 0 0 0
465 122 3 0.41 23.2655256626734 14.192536850781215 8.193360044820274 0 0 0
484 128 3 0.41 18.060269214572127 17.059171609575248 9.09811591782839 0 0 0
205 35 3 0.41 26.898503155438807 10.934301041748066 4.45010319004014 0 0 0
227 43 2 -0.82 23.439129769098848 14.409190422709289 5.447469878193384 0 0 0
228 43 3 0.41 23.30651047563836 14.286065238678137 4.446201558181735 0 0 0
230 44 2 -0.82 25.637229057810554 13.654014765224385 3.688165233253419 0 0 0
231 44 3 0.41 26.14124473754249 13.087041716000188 3.0108417190319576 0 0 0
232 44 3 0.41 25.4040457752868 14.457870930735389 3.112145560241872 0 0 0
254 52 2 -0.82 24.078595871783246 18.31765212158506 5.224973958409558 0 0 0
257 53 2 -0.82 26.601784454539057 17.230368808942718 5.70520035687656 0 0 0
235 45 3 0.41 1.9734305238141063 19.202472180238125 7.465983585634703 0 0 0
238 46 3 0.41 3.7492436061904466 18.467897458804497 4.629778232545524 0 0 0
260 54 2 -0.82 1.7941072387182826 20.935337390647494 7.170476410301064 0 0 0
261 54 3 0.41 1.5756037595343944 21.926348681593698 7.088377588658833 0 0 0
262 54 3 0.41 2.6065374203742446 20.83294893256263 6.55927224247216 0 0 0
263 55 2 -0.82 4.047795674502546 21.086047641900368 5.622223623592855 0 0 0
264 55 3 0.41 3.977433661409319 21.307276702487425 4.63547975821021 0 0 0
265 55 3 0.41 4.286834572279192 21.954222669018137 6.107662489368647 0 0 0
292 64 3 0.41 4.690023014784039 23.24255758896803 8.261638648725778 0 0 0
495 132 3 0.41 1.0023491652104795 20.760454070391273 8.652407863816185 0 0 0
240 47 3 0.41 6.294776012917243 17.829544554923626 6.402890574802056 0 0 0
241 47 3 0.41 7.251806095008915 16.6632959875315 5.860745863025726 0 0 0
244 48 3 0.41 12.350690269345371 18.52260398909414 5.889193175367034 0 0 0
266 56 2 -0.82 6.27316012911897 19.61454174434804 6.189281889444893 0 0 0
267 56 3 0.41 5.379872082999567 20.0781286955934 5.998239434387452 0 0 0
268 56 3 0.41 6.8122413445294585 19.774549749166827 5.3489992786895355 0 0 0
269 57 2 -0.82 12.272599456320187 20.236397034424886 6.90776141105766 0 0 0
270 57 3 0.41 11.516712748866894 20.764831892109566 6.50161260708993 0 0 0
271 57 3 0.41 12.067912654961086 20.12956086426113 7.898119770001998 0 0 0
295 65 3 0.41 7.127072520826502 23.75125691148395 7.051237119349823 0 0 0
298 66 3 0.41 9.488440900783113 23.445818542192495 7.914017620653141 0 0 0
502 134 3 0.41 6.500852351234906 19.725605183748076 7.912288085177256 0 0 0
243 48 3 0.41 12.728430484449778 17.42262255352053 4.7650687132829095 0 0 0
250 50 3 0.41 16.1957696362622 17.024721259395676 7.702074095799919 0 0 0
272 58 2 -0.82 14.920065753529702 20.32208699645289 6.237995469348259 0 0 0
273 58 3 0.41 13.909868659429439 20.341514014742348 6.401639848216518 0 0 0
274 58 3 0.41 15.026625226760961 20.301738065394023 5.231245590327973 0 0 0
275 59 2 -0.82 17.113340193129762 20.980833216005376 7.721134577559634 0 0 0
276 59 3 0.41 16.31545057212401 20.721340976670717 7.136698317493186 0 0 0
510 137 3 0.41 18.02911905250092 20.296167807251283 8.951469369598925 0 0 0
249 50 3 0.41 17.474929468026122 16.844577134065077 6.748559191051425 0 0 0
252 51 3 0.41 21.067384013114097 17.68892062338754 4.096756309533557 0 0 0
253 51 3 0.41 21.007256271306368 18.865127098332014 5.169872058044515 0 0 0
277 59 3 0.41 17.10619266373123 21.99447103841746 7.759881140110563 0 0 0
278 60 2 -0.82 20.590497580288428 20.609186061289382 5.016772433420352 0 0 0
279 60 3 0.41 20.516961726342302 20.80786360663865 4.023842084293462 0 0 0
280 60 3 0.41 19.6425603491143 20.70264819895442 5.344966886111437 0 0 0
283 61 3 0.41 22.42513966516214 21.28462141392566 5.046998050235969 0 0 0
306 69 3 0.41 20.925436048421915 23.30296428371748 6.660354263893739 0 0 0
513 138 3 0.41 20.189343085639834 20.085624954676884 10.366218577658582 0 0 0
256 52 3 0.41 24.16013309226017 18.426359217326315 4.220439929944689 0 0 0
258 53 3 0.41 27.104952261409565 17.392153151360333 4.843553813937294 0 0 0
259 53 3 0.41 25.651095144298182 17.54891601789838 5.529162559052158 0 0 0
281 61 2 -0.82 23.27712929750262 21.770227705540897 4.772014782761417 0 0 0
282 61 3 0.41 23.13919583436841 21.897765046918828 3.772479274150917 0 0 0
284 62 2 -0.82 27.666442433746827 21.726569299729395 4.794304989125004 0 0 0
285 62 3 0.41 28.58148694823242 22.147551365583595 4.883838191822512 0 0 0
286 62 3 0.41 27.789924789013682 21.137130900065948 3.974296233793024 0 0 0
312 71 3 0.41 26.725385633111664 25.52159269639831 5.281877283219482 0 0 0
544 148 3 0.41 26.688906042561026 23.93726829217867 8.1248314118552 0 0 0
287 63 2 -0.82 1.7782732476328509 23.710850911860554 7.0780618321282445 0 0 0
288 63 3 0.41 2.7851505546904916 23.557916596772692 7.100867777732339 0 0 0
289 63 3 0.41 1.6358614185039713 24.31227451646764 6.264947304419281 0 0 0
290 64 2 -0.82 4.489075581659553 23.219516957957968 7.263731156542845 0 0 0
291 64 3 0.41 4.626345976902139 24.161238334166683 6.874390870407055 0 0 0
314 72 2 -0.82 1.9212247377944123 25.300973808000332 4.769797292563208 0 0 0
315 72 3 0.41 1.6008455680709959 26.18508797318354 4.399771920982585 0 0 0
316 72 3 0.41 2.0398094712229957 24.738322615059374 3.93534544912112 0 0 0
317 73 2 -0.82 4.499778655667376 25.535456075093666 5.93949025641992 0 0 0
318 73 3 0.41 3.5628064364325205 25.580244793921935 5.544916165259735 0 0 0
319 73 3 0.41 5.083020833780468 25.823911616837446 5.167744113786818 0 0 0
293 65 2 -0.82 7.922936562406457 24.178717122268427 7.497733358054298 0 0 0
294 65 3 0.41 8.245336304168054 24.853480146177183 6.798065032751197 0 0 0
296 66 2 -0.82 10.469581754842467 23.304971689776494 8.146860269892308 0 0 0
297 66 3 0.41 10.947478155415654 23.93204816949747 7.500385929247192 0 0 0
320 74 2 -0.82 8.782306346024388 25.763864167252564 5.352686396727818 0 0 0
321 74 3 0.41 8.47778806882831 26.66300919686497 5.005366813814372 0 0 0
322 74 3 0.41 8.928604889365866 25.24333267939955 4.493462048790337 0 0 0
323 75 2 -0.82 11.321576823652425 25.42971866165575 6.557860577741013 0 0 0
325 75 3 0.41 10.478584686304329 25.621135216412537 6.016029755347547 0 0 0
525 142 3 0.41 7.784043269551296 24.02891792519551 9.352502226198558 0 0 0
552 151 3 0.41 7.754178166220825 27.163190371009293 10.419882503740062 0 0 0
556 152 3 0.41 11.369031096450806 26.27871819939463 8.044618284052643 0 0 0
299 67 2 -0.82 14.532907512350569 24.08369437771191 7.203854515150176 0 0 0
300 67 3 0.41 14.260095752723602 24.778696705873962 6.510168803193104 0 0 0
301 67 3 0.41 14.30824124419104 23.213866624146707 6.746368565344951 0 0 0
302 68 2 -0.82 17.174004902445766 23.781120059015397 8.08327148722069 0 0 0
304 68 3 0.41 16.199706442894062 23.96669599182774 7.839567342934246 0 0 0
324 75 3 0.41 12.074687821234116 25.43736886785693 5.864156511794696 0 0 0
326 76 2 -0.82 13.45192460795971 25.38796489594238 4.785896358344563 0 0 0
327 76 3 0.41 13.615535995985432 26.237198825785715 4.2591871340479885 0 0 0
328 76 3 0.41 13.426417200311642 24.690747046408603 4.050661495973276 0 0 0
329 77 2 -0.82 18.47380620173165 28.459356261360504 6.380529881638988 0 0 0
331 77 3 0.41 17.711307053768817 28.170354250463586 5.786636613192787 0 0 0
303 68 3 0.41 17.709339595712244 24.35005913331775 7.445393927039706 0 0 0
305 69 2 -0.82 21.286271305410615 24.034841904077474 7.250088821047353 0 0 0
307 69 3 0.41 20.809797887900796 24.877150864352508 6.905564229684739 0 0 0
309 70 3 0.41 22.954467771713286 24.349658542849408 6.657168308644383 0 0 0
330 77 3 0.41 18.745051673219763 29.35866336091231 5.9821008785656185 0 0 0
332 78 2 -0.82 19.91955571851726 26.04749161279288 6.01315286628799 0 0 0
333 78 3 0.41 19.503561495834543 26.959480192285472 6.18175790537262 0 0 0
334 78 3 0.41 19.89679552896469 25.94241002275825 5.007741084919512 0 0 0
337 79 3 0.41 24.245220073551828 26.742793515893048 4.031097605583861 0 0 0
308 70 2 -0.82 23.88582125818493 24.377732610684692 6.242643108431081 0 0 0
310 70 3 0.41 23.940715217579896 25.311248675838286 5.821805567656955 0 0 0
311 71 2 -0.82 26.625417360837716 24.585106743140443 4.885057854301514 0 0 0
313 71 3 0.41 27.09142464165395 24.685508190807905 3.9852569484300293 0 0 0
335 79 2 -0.82 24.05042359419674 26.872533586807553 5.019923379911786 0 0 0
336 79 3 0.41 23.250434775092586 27.485049063317536 5.0020901140636695 0 0 0
338 80 2 -0.82 26.648809386020083 27.12391586662744 5.859784988218175 0 0 0
339 80 3 0.41 27.16402111560451 27.744368452366402 5.248607830420954 0 0 0
340 80 3 0.41 25.673144219991077 27.212402734035713 5.566331947661076 0 0 0
341 81 2 -0.82 0.32418975907385333 3.0090806835864403 12.232423031919534 0 0 0
342 81 3 0.41 0.5595499440919853 2.7363439077820897 13.19228953421038 0 0 0
343 81 3 0.41 1.1253900994194745 2.7189765795098424 11.702191335987548 0 0 0
344 82 2 -0.82 4.930888776745043 3.3144773648122685 8.532561559712388 0 0 0
345 82 3 0.41 5.573492021442822 2.737697111032992 9.05339219810956 0 0 0
346 82 3 0.41 4.909511969744101 2.9441385330829535 7.580359048140523 0 0 0
368 90 2 -0.82 1.8756046894059202 6.139168109582163 10.682767468076475 0 0 0
369 90 3 0.41 1.0059679684849177 5.728719704035734 10.394532505321797 0 0 0
370 90 3 0.41 1.9221704973806286 6.013544564322349 11.699669571618292 0 0 0
371 91 2 -0.82 4.340299599837055 5.766700054312265 9.465468845801745 0 0 0
372 91 3 0.41 4.5010314358927355 4.831546835700469 9.068198090675919 0 0 0
373 91 3 0.41 3.3876038145062672 5.7313784620058295 9.835171233287515 0 0 0
572 158 2 -0.82 1.4027617983608585 2.26876273460027 14.634206760775722 0 0 0
573 158 3 0.41 2.396522059275806 2.0591395191712794 14.580419698728033 0 0 0
574 158 3 0.41 1.1694357294658668 2.203175635279607 15.626105138345968 0 0 0
575 159 2 -0.82 4.230106553046189 1.9080844221837974 14.4836750631397 0 0 0
576 159 3 0.41 4.558432887052852 1.300888164787553 15.235971737602307 0 0 0
577 159 3 0.41 5.049126430764275 2.0616606509440327 13.899413468480823 0 0 0
599 167 2 -0.82 1.9059570498435479 5.720790574366127 13.36865741490789 0 0 0
600 167 3 0.41 2.668319651212073 5.25350532430607 13.884006087650645 0 0 0
601 167 3 0.41 1.0798002036089958 5.224363608449955 13.66219087874057 0 0 0
602 168 2 -0.82 3.820797544346159 4.586196759713117 14.78805513406681 0 0 0
603 168 3 0.41 3.9625528548090774 3.586209857234325 14.647086240610557 0 0 0
604 168 3 0.41 4.153426939886198 4.7586638676049615 15.739706868036624 0 0 0
347 83 2 -0.82 6.942700683925921 2.7459596423311843 10.503075494098649 0 0 0
348 83 3 0.41 6.854644228413805 2.515677266498334 11.488499163769333 0 0 0
349 83 3 0.41 6.774178118572881 3.7377789275578746 10.441750941414297 0 0 0
350 84 2 -0.82 12.491386145928034 3.4557628887062832 10.529876204492185 0 0 0
351 84 3 0.41 12.04349313891545 4.375306634843226 10.525676050420719 0 0 0
374 92 2 -0.82 7.268891324086639 6.093033587563678 10.142016506746254 0 0 0
375 92 3 0.41 7.545374407646701 5.783744075237153 11.070933265607064 0 0 0
376 92 3 0.41 8.01122320962804 5.7556060422763595 9.524751817948212 0 0 0
377 93 2 -0.82 10.964424783609163 5.72586556932407 10.597653973498613 0 0 0
379 93 3 0.41 11.310800438087904 6.676736677480519 10.405723296034257 0 0 0
578 160 2 -0.82 6.781094203063296 2.6341714368647415 13.406597749522177 0 0 0
579 160 3 0.41 7.156701954550031 3.5612100117885714 13.213892007488704 0 0 0
580 160 3 0.41 7.12581244184225 2.3977751312636126 14.336732784454803 0 0 0
581 161 2 -0.82 13.001185525850023 3.794322384767178 13.210948741257152 0 0 0
582 161 3 0.41 12.860402233655911 3.591563727110054 12.219128876100145 0 0 0
583 161 3 0.41 12.175025432364803 4.332284097922377 13.457904670282508 0 0 0
605 169 2 -0.82 7.997172394830422 5.063195467383473 12.684136061112747 0 0 0
606 169 3 0.41 8.989225109341914 4.946853494037621 12.858759169169 0 0 0
607 169 3 0.41 7.765956578363776 5.933788195278239 13.171494492267284 0 0 0
608 170 2 -0.82 10.760417332175301 5.5634874728186015 13.316264985730058 0 0 0
609 170 3 0.41 10.873857505884416 5.616899921688248 12.29836263404969 0 0 0
610 170 3 0.41 10.705743495428504 6.545411675665944 13.602268570758332 0 0 0
353 85 2 -0.82 15.036423066282854 2.3641512076559237 10.292422313073457 0 0 0
354 85 3 0.41 15.032469225355051 2.2235394016378627 9.291206727071948 0 0 0
355 85 3 0.41 14.165270681995628 2.8721461676963758 10.441587773085356 0 0 0
356 86 2 -0.82 18.17713422313801 2.9001834545092158 10.448504460505127 0 0 0
357 86 3 0.41 17.347244871957162 2.3301648553507643 10.406848757957299 0 0 0
380 94 2 -0.82 15.016461997794945 6.315843243153493 9.524467522982157 0 0 0
381 94 3 0.41 14.574577100922939 7.196557914203353 9.275144927615704 0 0 0
383 95 2 -0.82 17.332117682536865 5.577294519705685 10.601350624415453 0 0 0
384 95 3 0.41 16.367157863870794 5.835898508147946 10.349509806299597 0 0 0
584 162 2 -0.82 14.973531402836377 1.7144114698901116 13.047287150514363 0 0 0
585 162 3 0.41 15.104213049745503 1.818646725861372 12.04123685821675 0 0 0
586 162 3 0.41 14.273550225243376 2.411662551968347 13.284860435140367 0 0 0
587 163 2 -0.82 17.479879114605446 2.172535896375 14.357491671489298 0 0 0
589 163 3 0.41 16.62287510674286 1.7914887267708774 13.962154785296425 0 0 0
611 171 2 -0.82 14.946559520958798 5.095124500274417 14.653494790241739 0 0 0
612 171 3 0.41 14.56929938930257 6.012716234056891 14.90235746761796 0 0 0
613 171 3 0.41 14.223990542062326 4.639383095076586 14.094307861810554 0 0 0
614 172 2 -0.82 17.39106819497067 4.78108365940912 13.361923764568157 0 0 0
616 172 3 0.41 16.51890917070429 4.987715911448721 13.85350596200934 0 0 0
358 86 3 0.41 17.829773178964082 3.843937151153922 10.571200667842719 0 0 0
359 87 2 -0.82 20.51017667087474 3.4781278400966475 9.010138035215256 0 0 0
361 87 3 0.41 19.72049786455833 3.0612284197450657 9.506787477414408 0 0 0
364 88 3 0.41 24.21895003407701 2.0958662591517605 8.904354276808164 0 0 0
385 95 3 0.41 17.733763194473575 5.453070971708612 9.664013167781327 0 0 0
386 96 2 -0.82 21.084383469534835 5.2496372739426596 11.022012320440497 0 0 0
387 96 3 0.41 20.45432428290398 4.6872263399387855 10.451194634869012 0 0 0
388 96 3 0.41 20.734175504539856 6.213185049625566 11.0035893992042 0 0 0
588 163 3 0.41 17.49186319708777 3.129185335477907 14.006483782987672 0 0 0
590 164 2 -0.82 20.320801896013585 2.3222899872812572 14.551802550338499 0 0 0
591 164 3 0.41 19.39142039346144 1.9634971644385162 14.364747741102608 0 0 0
592 164 3 0.41 20.27815498711855 3.300523292286412 14.26283864375665 0 0 0
594 165 3 0.41 21.92430453796262 2.209978374644943 14.96256651110025 0 0 0
615 172 3 0.41 17.241652571896655 5.050393016012069 12.393280415373567 0 0 0
617 173 2 -0.82 20.09725880310813 4.912705895724617 13.843752961927333 0 0 0
618 173 3 0.41 20.493585105119102 5.0962210659431575 12.930893804672616 0 0 0
619 173 3 0.41 19.08363879435491 4.984939379597019 13.723652171198376 0 0 0
622 174 3 0.41 23.30640461299955 5.025997050075954 12.825726653640164 0 0 0
362 88 2 -0.82 23.926091093245276 2.623721750515152 9.73652907219348 0 0 0
363 88 3 0.41 24.59110739442303 2.361635171691717 10.472371173677683 0 0 0
365 89 2 -0.82 28.058402697246933 3.437113642383681 10.702571575764011 0 0 0
366 89 3 0.41 28.410797261194574 3.0792677699576205 9.831504966870398 0 0 0
367 89 3 0.41 28.836406135521177 3.346051826386945 11.362661237518521 0 0 0
389 97 2 -0.82 25.700854407618248 5.178960769343112 9.546650811095592 0 0 0
390 97 3 0.41 26.11036929615596 5.344756507770103 8.624776814993275 0 0 0
391 97 3 0.41 26.457813460224617 4.784989393417262 10.094304029845787 0 0 0
593 165 2 -0.82 22.889566959861654 2.2251227460850873 15.314196421093587 0 0 0
595 165 3 0.41 23.400848904227114 1.5700616166566452 14.750528000743994 0 0 0
596 166 2 -0.82 25.737698371869183 2.496263924346657 11.759323880619267 0 0 0
597 166 3 0.41 26.640984906396984 2.760230498293364 11.361771616509072 0 0 0
598 166 3 0.41 25.71142122911329 2.932008059233782 12.662451202623139 0 0 0
620 174 2 -0.82 23.88779591484117 5.175169010349782 12.016483067926925 0 0 0
621 174 3 0.41 24.761340876601388 5.529343260031254 12.426149034330875 0 0 0
623 175 2 -0.82 26.030447080864906 6.125300044850955 13.417900568078029 0 0 0
624 175 3 0.41 26.248989385783695 5.931470534588401 14.392610356616615 0 0 0
625 175 3 0.41 26.512187017305614 6.985518220798067 13.207640623240554 0 0 0
1758 0 4 2 23.18449216491101 4.951377174407235 9.588081367944465 0 0 0
392 98 2 -0.82 3.2814384748557863 8.453194494451806 9.930690785960758 0 0 0
393 98 3 0.41 2.713957085391052 9.226696634064986 9.570148913695254 0 0 0
394 98 3 0.41 2.589013468851288 7.751802558102011 10.18787524970699 0 0 0
416 106 2 -0.82 1.8846357129289504 10.557931441758063 8.938468940830269 0 0 0
417 106 3 0.41 1.7596544464991428 10.546184789851997 7.922347134264923 0 0 0
418 106 3 0.41 1.9193242015715968 11.528189803006361 9.186817337455095 0 0 0
419 107 2 -0.82 5.563322975488095 10.366733576418747 9.409292818955459 0 0 0
626 176 2 -0.82 3.84260831465691 7.718887559210444 13.802624239159462 0 0 0
627 176 3 0.41 3.037261678573061 7.138823414351885 13.582988400361563 0 0 0
628 176 3 0.41 4.138163984977252 7.4299521954754955 14.718599842161723 0 0 0
629 177 2 -0.82 5.805094708890911 8.069691072079948 11.970002227608447 0 0 0
630 177 3 0.41 5.010122144126973 7.997200945851473 12.614763174137348 0 0 0
631 177 3 0.41 6.5920137841096205 7.933974573392285 12.609530121853632 0 0 0
653 185 2 -0.82 29.58229568705971 11.722530788126186 14.568169179203354 -1 0 0
654 185 3 0.41 0.12982530782362686 11.818554701389708 15.428817598442514 0 0 0
656 186 2 -0.82 5.561494723085093 12.763752569581325 13.747167331673475 0 0 0
657 186 3 0.41 5.253790732152419 11.939415694449702 13.261361241539545 0 0 0
1759 0 4 2 5.630728351334018 7.8525425032128915 9.545292742498889 0 0 0
395 99 2 -0.82 7.858748165383778 8.565880690895607 8.577850589032906 0 0 0
397 99 3 0.41 8.540488712372728 9.237455815502503 8.944106983906247 0 0 0
398 100 2 -0.82 11.745223230239652 8.228356661781545 10.019650505665549 0 0 0
399 100 3 0.41 11.18195860339568 9.064367509413714 10.010638553910685 0 0 0
422 108 2 -0.82 9.384226959676745 10.625117960687323 9.608740035115224 0 0 0
423 108 3 0.41 10.116908586113395 11.176260566959657 10.06309452989209 0 0 0
424 108 3 0.41 8.655509465420868 11.293233196806263 9.435605634600222 0 0 0
425 109 2 -0.82 11.249371293473509 12.272664880352698 10.731962403427055 0 0 0
426 109 3 0.41 11.085213267225067 13.272952849410686 10.734311548397587 0 0 0
427 109 3 0.41 12.208653410037487 12.126629552088785 11.031309641723027 0 0 0
632 178 2 -0.82 7.796361481107502 7.536502141513621 13.78667693029241 0 0 0
633 178 3 0.41 7.4151412297366965 7.736946620587625 14.720995676042872 0 0 0
634 178 3 0.41 8.765718435426129 7.845074466711572 13.866804494873744 0 0 0
635 179 2 -0.82 10.443336040481663 8.114411620446683 14.304201330721476 0 0 0
636 179 3 0.41 10.740127763786111 7.901354504781082 15.25635059058854 0 0 0
637 179 3 0.41 10.713722721866299 9.098167596811859 14.201786190498032 0 0 0
659 187 2 -0.82 7.81371394448507 12.164979329689727 15.048519705874702 0 0 0
660 187 3 0.41 7.847623137428027 11.978275671405209 16.04776024438015 0 0 0
661 187 3 0.41 8.684358250712531 12.65406394147408 14.84016815510657 0 0 0
662 188 2 -0.82 11.300227842944617 10.70676854616392 14.503542961580168 0 0 0
663 188 3 0.41 10.613481838224422 11.431493202754897 14.651062775375259 0 0 0
664 188 3 0.41 12.181905799956546 11.205946552393234 14.432973227618659 0 0 0
400 100 3 0.41 12.570671865301922 8.430102239521043 9.45704104532235 0 0 0
401 101 2 -0.82 13.988186454805147 8.67629503967381 8.427139548713484 0 0 0
402 101 3 0.41 14.577033025966283 9.49659503921649 8.468161257852692 0 0 0
403 101 3 0.41 13.933443623134075 8.420175224807206 7.447199852656366 0 0 0
404 102 2 -0.82 17.88073512641595 8.18146374294332 11.530850642740567 0 0 0
405 102 3 0.41 17.996813312575277 8.150451780344198 12.54521745698999 0 0 0
428 110 2 -0.82 13.957430353846595 12.01078951097286 11.587959674842521 0 0 0
429 110 3 0.41 14.731327205295555 11.378588839258613 11.400878770003523 0 0 0
430 110 3 0.41 14.307219638402502 12.941596011244588 11.341081111087055 0 0 0
431 111 2 -0.82 16.418513568358307 10.56842191668189 11.41093913045506 0 0 0
432 111 3 0.41 16.724449477921567 10.849839833623374 12.3399174449968 0 0 0
638 180 2 -0.82 13.958651388239929 7.557508827445141 15.352532995016421 0 0 0
639 180 3 0.41 14.521019288964851 8.040842267032609 16.059274573526224 0 0 0
640 180 3 0.41 13.798979100282141 8.231846426943864 14.621644869036444 0 0 0
641 181 2 -0.82 18.393154883814617 8.484847378108201 14.21584768513545 0 0 0
642 181 3 0.41 18.05806374436518 9.44770851375993 14.207741732619732 0 0 0
665 189 2 -0.82 13.589942699926132 12.284359068950655 14.271632160359509 0 0 0
666 189 3 0.41 14.114254611266242 13.152554499926614 14.364221830949457 0 0 0
667 189 3 0.41 13.673637893117881 12.068510735209022 13.275070055073225 0 0 0
668 190 2 -0.82 17.48423611957207 11.180501566174582 13.988777084520878 0 0 0
670 190 3 0.41 17.405886789210847 11.319072980085048 14.997418086791528 0 0 0
406 102 3 0.41 17.60329048424915 7.24844270094641 11.234366439864207 0 0 0
407 103 2 -0.82 20.60022963919415 7.917118003577841 11.089964964694401 0 0 0
408 103 3 0.41 20.83581974810731 8.22782493439293 12.037764378000288 0 0 0
409 103 3 0.41 19.616631319426588 8.170961274588324 10.997001461250026 0 0 0
411 104 3 0.41 22.16703006488634 7.771888250302218 10.32946597596924 0 0 0
433 111 3 0.41 16.881015312414533 9.669431255811588 11.279298424604715 0 0 0
434 112 2 -0.82 21.729831114029725 12.07609273099619 9.693083698340144 0 0 0
435 112 3 0.41 20.81117293335813 11.682788594916973 9.609677497485794 0 0 0
436 112 3 0.41 21.69154374214127 12.972571599170125 9.207638325960993 0 0 0
439 113 3 0.41 23.324083652561416 11.39083762683505 9.84166323646625 0 0 0
643 181 3 0.41 18.069140219518278 8.073114281858842 15.091995995136935 0 0 0
644 182 2 -0.82 21.088708270369004 8.627384645661357 13.629644719881464 0 0 0
645 182 3 0.41 21.23475735336363 9.560227470316562 14.024893613750594 0 0 0
646 182 3 0.41 20.143228366247282 8.395938996446565 13.941467282439765 0 0 0
648 183 3 0.41 22.848627950966037 8.545396466335928 13.143423066008452 0 0 0
669 190 3 0.41 17.6824920648776 12.124001734172536 13.655577918216517 0 0 0
671 191 2 -0.82 21.336286081981953 11.086124087303528 14.70661397680582 0 0 0
672 191 3 0.41 21.021426257332006 11.993918481456484 14.362216231789947 0 0 0
673 191 3 0.41 20.863666890123408 10.923860299592457 15.599021548021486 0 0 0
675 192 3 0.41 23.01231545022025 11.118637412350068 14.589763006995463 0 0 0
410 104 2 -0.82 23.09956693992081 7.451827782449362 10.049609547016434 0 0 0
412 104 3 0.41 23.382832374357555 8.084829038361994 9.300716279332207 0 0 0
413 105 2 -0.82 26.405410788561348 9.394243730940268 10.486522790888868 0 0 0
414 105 3 0.41 26.635853875430108 9.333725730239536 11.469651463123522 0 0 0
415 105 3 0.41 25.569679346471442 9.969803515494684 10.423585717544974 0 0 0
437 113 2 -0.82 24.200110367820802 10.88428518054977 9.685340618823021 0 0 0
438 113 3 0.41 23.963247401308568 10.172712506599806 8.995892943317742 0 0 0
440 114 2 -0.82 26.25494663546807 11.88858484942244 8.163922157170514 0 0 0
441 114 3 0.41 25.507975213491118 11.615693959569793 8.808111123187185 0 0 0
442 114 3 0.41 27.096734271440727 11.537366995838232 8.592825044151642 0 0 0
647 183 2 -0.82 23.761449251389763 8.70154325396249 12.72018166441686 0 0 0
649 183 3 0.41 23.741838755214552 8.1946719929857 11.843924022247664 0 0 0
650 184 2 -0.82 26.314372502854752 9.139655922608185 13.45418060759409 0 0 0
651 184 3 0.41 25.353135130815502 8.914236762847649 13.18518643744465 0 0 0
652 184 3 0.41 26.339503208916035 8.966386848029613 14.460883992318559 0 0 0
674 192 2 -0.82 24.022877433958254 11.106154067875103 14.422875211352155 0 0 0
676 192 3 0.41 24.130200697453155 10.41972635857329 13.68668131182339 0 0 0
677 193 2 -0.82 26.902405330931497 11.789608160456455 14.378036901239078 0 0 0
678 193 3 0.41 27.92572623126794 11.821983115099188 14.478546851490487 0 0 0
679 193 3 0.41 26.74279091060086 10.916668398482598 13.882839455467321 0 0 0
420 107 3 0.41 5.328490339925556 11.055949583099078 10.10263521377984 0 0 0
443 115 2 -0.82 3.1090280755340207 15.553211032129191 10.142113671795974 0 0 0
444 115 3 0.41 2.7681046074475817 16.45469781469194 10.44689520140618 0 0 0
446 116 2 -0.82 5.2313700393332905 14.305426356652937 11.285113630928624 0 0 0
448 116 3 0.41 4.505236846775761 14.690495218257906 10.668624519896536 0 0 0
467 123 2 -0.82 1.9076063613080176 18.31073631949869 10.37147987784544 0 0 0
470 124 2 -0.82 5.36272274547654 17.13605436503949 11.884867990598249 0 0 0
471 124 3 0.41 5.813989636700744 17.037433860018833 10.973450714289337 0 0 0
472 124 3 0.41 4.980532344379332 18.072057106101166 11.860225747480536 0 0 0
655 185 3 0.41 0.26365824546017047 11.625123829220723 13.838980313164669 0 0 0
658 186 3 0.41 6.42029887288766 12.47547081874716 14.237961365730452 0 0 0
680 194 2 -0.82 2.85337461897986 15.091429002110699 14.223883222817472 0 0 0
681 194 3 0.41 2.336826681895147 14.902637998020232 15.082698435882985 0 0 0
682 194 3 0.41 2.3741886026293604 15.89530419337901 13.795458363468471 0 0 0
701 201 2 -0.82 2.1411497395000323 17.386781929337804 13.01317729268153 0 0 0
703 201 3 0.41 2.006148128039179 17.756778533799913 12.073223196920456 0 0 0
704 202 2 -0.82 5.043857276973137 17.367234643684167 14.86394772110479 0 0 0
1762 0 4 2 5.225445224445277 15.255713093879253 13.570415653911896 0 0 0
449 117 2 -0.82 7.809997372241499 14.812655971357401 10.392547931564774 0 0 0
450 117 3 0.41 7.507214233533489 15.69652666478945 9.982838204082192 0 0 0
451 117 3 0.41 8.821839175993338 14.8597095021224 10.44283229961655 0 0 0
452 118 2 -0.82 10.73516003625329 15.106254483913279 10.43558657283223 0 0 0
453 118 3 0.41 10.96784333112599 16.013603352072142 10.836109092821605 0 0 0
454 118 3 0.41 11.146784669900319 15.129992525268843 9.517911299316411 0 0 0
473 125 2 -0.82 6.663004971038879 17.088047520430234 9.376302237152725 0 0 0
475 125 3 0.41 6.543269600210846 16.814509479066174 8.400625954460079 0 0 0
476 126 2 -0.82 11.609920151969986 17.74323876902622 11.138521908457934 0 0 0
477 126 3 0.41 11.481845197056835 18.0540281707436 12.100878184817052 0 0 0
683 195 2 -0.82 7.649379938663981 15.540165663991031 13.719639477527878 0 0 0
684 195 3 0.41 8.012601218208825 16.505464012463335 13.727421874478319 0 0 0
685 195 3 0.41 8.474706661909941 14.961564819670471 13.742058024244141 0 0 0
686 196 2 -0.82 10.185728773066092 13.47832993528835 14.686875260248776 0 0 0
687 196 3 0.41 10.43113460059363 14.06100077524096 15.493336011403091 0 0 0
707 203 2 -0.82 8.58066704629036 18.048639154196064 13.77534640263528 0 0 0
708 203 3 0.41 9.569258068167949 18.275864034634612 13.70870987913624 0 0 0
710 204 2 -0.82 11.276383960177817 18.686331834964705 13.809009716014238 0 0 0
711 204 3 0.41 11.489126059992385 18.285618359010652 14.720384098307926 0 0 0
455 119 2 -0.82 14.927576579947253 14.503650702201183 11.213527670296923 0 0 0
456 119 3 0.41 14.447222672926202 15.247787646115617 10.688244636198297 0 0 0
457 119 3 0.41 15.90486716001037 14.606457397825627 10.942464497618888 0 0 0
458 120 2 -0.82 17.625807465107915 14.762697893418197 10.804045617717838 0 0 0
459 120 3 0.41 17.84315449237874 14.44896235962448 11.749150717124218 0 0 0
460 120 3 0.41 18.02099128036883 15.69370967237474 10.693560829107215 0 0 0
479 127 2 -0.82 13.81277746313038 16.546984322278703 9.907843216932054 0 0 0
481 127 3 0.41 13.038242139325513 17.066460897758997 10.314365167354627 0 0 0
482 128 2 -0.82 18.554168558215373 17.349341557570447 9.945155814626172 0 0 0
688 196 3 0.41 10.921087293143353 13.62390856830695 14.015781698263114 0 0 0
689 197 2 -0.82 15.10710263178062 14.657029056318455 13.90958649306759 0 0 0
690 197 3 0.41 14.936377065404068 14.595128345060138 12.90119620162729 0 0 0
691 197 3 0.41 15.171323269833417 15.658737751090007 14.08726282591638 0 0 0
692 198 2 -0.82 17.727284701713206 13.905979945348214 13.466257361047672 0 0 0
694 198 3 0.41 16.791587319366528 14.15786317804052 13.787365657451213 0 0 0
713 205 2 -0.82 15.368538570693703 17.397681445699938 14.187079759143504 0 0 0
714 205 3 0.41 15.029141135525087 17.529022120568317 15.143943325686813 0 0 0
716 206 2 -0.82 18.08777930066016 17.88863964376926 14.595003100633445 0 0 0
461 121 2 -0.82 21.560879998843674 14.489769577729517 8.371299157198562 0 0 0
462 121 3 0.41 21.286469385159506 15.250566692801423 8.969864470371405 0 0 0
485 129 2 -0.82 20.878085598004052 17.40588544868456 11.382381395211542 0 0 0
487 129 3 0.41 20.03098504823362 17.3110287898616 10.81659834679719 0 0 0
693 198 3 0.41 18.369163944201755 14.568947409456484 13.879528842304962 0 0 0
695 199 2 -0.82 20.973112028447062 13.580592794801097 13.52412531674217 0 0 0
696 199 3 0.41 21.161442098788662 13.471946371563192 12.539262243354992 0 0 0
697 199 3 0.41 20.50991228747816 14.488656743049775 13.611731364793291 0 0 0
700 200 3 0.41 22.410547123126054 13.724144890599725 14.404979714361948 0 0 0
718 206 3 0.41 18.245066093555206 18.89304612738834 14.490000564580708 0 0 0
719 207 2 -0.82 19.7850979446037 16.04433900578274 13.551651270308412 0 0 0
720 207 3 0.41 19.171035933067195 16.73326069395556 13.994226862661653 0 0 0
724 208 3 0.41 24.07565687726202 16.780772951934164 15.24421303973768 0 0 0
464 122 2 -0.82 24.274448709454308 14.030557032241196 8.213541804423892 0 0 0
466 122 3 0.41 24.535527199390046 14.314304318522682 9.145166575445264 0 0 0
488 130 2 -0.82 22.964762457427796 15.593687448371053 11.450258665513775 0 0 0
490 130 3 0.41 23.439141981077565 15.757002924308525 12.321729158522844 0 0 0
491 131 2 -0.82 27.138346785389523 14.83957959073273 6.749794880545723 0 0 0
492 131 3 0.41 28.05377154612596 14.920169216080197 7.165729532319864 0 0 0
698 200 2 -0.82 23.31148204528296 13.946105732769912 14.831489594347952 0 0 0
699 200 3 0.41 23.4273463192269 14.944202261128703 14.661843069090187 0 0 0
722 208 2 -0.82 23.924131023851952 16.582877034768362 14.24027336421818 0 0 0
725 209 2 -0.82 26.066101126306915 14.722214202301 14.624107081093484 0 0 0
1760 0 4 2 25.469128397637597 13.150504254875273 6.125728936170522 0 0 0
1763 0 4 2 25.21343201883404 12.739274764495525 16.000512150512147 0 0 0
468 123 3 0.41 1.3675099309451269 19.168297192672778 10.377851653567305 0 0 0
469 123 3 0.41 2.1558545951835817 18.207663690461853 9.387990983062513 0 0 0
494 132 2 -0.82 0.5493005300108572 20.85198874708897 9.563572154030194 0 0 0
496 132 3 0.41 0.7849177405553468 21.80827820270602 9.841106961325847 0 0 0
497 133 2 -0.82 5.129847304374918 20.33879390425828 11.131753716047973 0 0 0
498 133 3 0.41 4.789129630250081 21.239045787421997 10.815749903791575 0 0 0
499 133 3 0.41 5.680966564269711 20.009768467443543 10.341624492712683 0 0 0
702 201 3 0.41 2.1312720261510267 18.192104152883797 13.6374462287174 0 0 0
705 202 3 0.41 4.936589327390357 17.456800765063413 15.876518063761479 0 0 0
706 202 3 0.41 5.001666928533991 18.32265728781302 14.500138995250124 0 0 0
728 210 2 -0.82 2.4330475171659707 19.467163530832924 14.843531672601994 0 0 0
729 210 3 0.41 2.144069606906544 20.18925248966584 15.507142527258063 0 0 0
730 210 3 0.41 3.3056172315567007 19.80070959154881 14.436048131439502 0 0 0
731 211 2 -0.82 4.976199183823853 19.914687474988863 13.835391483130127 0 0 0
732 211 3 0.41 4.9598224314655015 20.131755034372123 12.83488241473453 0 0 0
733 211 3 0.41 5.918713203892435 20.191135845589155 14.120667234312059 0 0 0
474 125 3 0.41 6.767601406638795 18.100954265719015 9.309714201786724 0 0 0
478 126 3 0.41 11.53221700349646 18.59193271819452 10.577861110182422 0 0 0
500 134 2 -0.82 6.738554061881684 19.791082223817668 8.906644788711425 0 0 0
501 134 3 0.41 7.412142025573998 20.534272836707807 8.96310020574173 0 0 0
503 135 2 -0.82 11.704160689630426 20.19733614340177 9.741770896275803 0 0 0
504 135 3 0.41 12.457341008610282 20.547157728196343 10.346968816583415 0 0 0
505 135 3 0.41 11.06809849834936 20.97245221831541 9.65639021327794 0 0 0
709 203 3 0.41 8.118405990016196 18.93127650642725 13.977631264155756 0 0 0
712 204 3 0.41 11.362123523953837 19.69911202838796 13.923414130215296 0 0 0
734 212 2 -0.82 7.538871728789872 20.555656560570934 14.519386157477935 0 0 0
735 212 3 0.41 7.809126417492087 20.50867144690771 15.499526362502412 0 0 0
736 212 3 0.41 7.773628399571732 21.481711213469218 14.175311299239798 0 0 0
737 213 2 -0.82 11.522387058589231 21.434762696811728 14.13728809285554 0 0 0
738 213 3 0.41 11.084179077507809 22.191127946788612 13.607878425053407 0 0 0
739 213 3 0.41 12.51788612829142 21.667335079883582 14.100500413311742 0 0 0
480 127 3 0.41 14.114251409940575 17.065949628003512 9.083864699644064 0 0 0
483 128 3 0.41 18.448230915373387 18.363619476777323 9.956118117210321 0 0 0
506 136 2 -0.82 13.505316227305064 21.396404932264506 11.35557683224688 0 0 0
507 136 3 0.41 13.719861210267107 21.57910933307493 12.329583066083474 0 0 0
508 136 3 0.41 13.832751080160781 22.20691093193883 10.83742513539345 0 0 0
509 137 2 -0.82 18.598475618712044 20.195237611466414 9.800738843371493 0 0 0
511 137 3 0.41 18.602642503522127 21.15285764202743 10.142524950107916 0 0 0
532 144 3 0.41 14.216463858388073 23.931749345133767 9.021854611329788 0 0 0
715 205 3 0.41 14.786992382171741 17.973478362610248 13.599354102996655 0 0 0
717 206 3 0.41 17.11226992674188 17.735405614827982 14.337118890345494 0 0 0
740 214 2 -0.82 14.07862213913506 22.3141810181054 14.010272035540767 0 0 0
741 214 3 0.41 14.640243901091765 23.01816166422711 13.531927282834678 0 0 0
742 214 3 0.41 14.169865188266586 22.532170805470876 15.008957866101658 0 0 0
743 215 2 -0.82 18.51516152301148 20.614921486158956 14.456368938589707 0 0 0
744 215 3 0.41 18.095756430904768 21.397228656451688 13.980301673924972 0 0 0
486 129 3 0.41 21.15334799923212 18.3766583231309 11.236260084581282 0 0 0
489 130 3 0.41 22.223204472402156 16.285850343289034 11.381151187041283 0 0 0
512 138 2 -0.82 21.104364677597367 20.14134787971039 10.82071891257274 0 0 0
514 138 3 0.41 21.532129854878395 20.976728870232655 10.442634424313708 0 0 0
516 139 3 0.41 24.79653287484382 19.555619891907764 6.068958830412474 0 0 0
534 145 3 0.41 18.48573830409781 23.31821307039049 11.171002453633152 0 0 0
721 207 3 0.41 20.242438193125196 16.56024335481499 12.800154996840568 0 0 0
745 215 3 0.41 18.38780765479677 20.815445765723876 15.45331421542941 0 0 0
746 216 2 -0.82 21.137951822208116 20.63065815114054 13.519255450419166 0 0 0
747 216 3 0.41 21.097173275350496 20.400715152761194 12.528477985064644 0 0 0
748 216 3 0.41 20.18741440582193 20.566045766236094 13.875477744919825 0 0 0
750 217 3 0.41 22.321473304961888 21.588406373664736 14.157058192331657 0 0 0
493 131 3 0.41 26.967507354009904 15.788667344553312 6.381604143431354 0 0 0
515 139 2 -0.82 25.377841528666853 20.276849887252887 6.513965097679541 0 0 0
517 139 3 0.41 26.072459978792683 19.741191911264206 7.014894151576451 0 0 0
723 208 3 0.41 23.634413307204397 17.475106238123967 13.876172179635288 0 0 0
726 209 3 0.41 26.987899861647087 14.927192337213397 14.27314494812865 0 0 0
727 209 3 0.41 25.466655424274574 15.492686098106137 14.341478204937413 0 0 0
749 217 2 -0.82 22.993970112584165 22.209312792541212 14.627739206049652 0 0 0
751 217 3 0.41 23.166827533839054 21.692022689058565 15.501078207099164 0 0 0
752 218 2 -0.82 27.842209601938766 21.15624526366248 9.293614786022665 0 0 0
753 218 3 0.41 28.861040756645096 21.08003912162023 9.264184925757453 0 0 0
754 218 3 0.41 27.57656854419006 20.54386559041781 10.040474791188243 0 0 0
1761 0 4 2 25.483359061424014 22.583491065700443 5.65363330546541 0 0 0
518 140 2 -0.82 1.2218998996921828 23.48901201949215 9.770620227639496 0 0 0
519 140 3 0.41 1.7156402267155137 24.21000109415989 10.279989011824988 0 0 0
520 140 3 0.41 1.3727443308163056 23.667650245062813 8.776639851230085 0 0 0
521 141 2 -0.82 4.970958690099076 23.124551133033755 10.049992071701253 0 0 0
522 141 3 0.41 5.939889018841168 23.396629826765416 10.21777395289022 0 0 0
523 141 3 0.41 4.405787895710215 23.763641532339836 10.583111501107759 0 0 0
545 149 2 -0.82 2.3635204720240868 25.697523546596415 11.262889118343889 0 0 0
546 149 3 0.41 2.1833037219086564 25.655816498191328 12.27144743232 0 0 0
547 149 3 0.41 1.7486004871949803 26.40573871325626 10.902276768299645 0 0 0
548 150 2 -0.82 5.03502176702924 26.22529959621301 11.630126350951219 0 0 0
549 150 3 0.41 4.073689983267246 26.076270322710215 11.32722968722447 0 0 0
550 150 3 0.41 4.970104264539108 26.391137647447124 12.634657501824172 0 0 0
755 219 2 -0.82 3.2057856616011113 23.408280750381227 14.914626049592139 0 0 0
756 219 3 0.41 4.222428583118699 23.47174215136281 14.897908744287275 0 0 0
757 219 3 0.41 2.9165288709131993 23.396093312057623 15.887440880271699 0 0 0
758 220 2 -0.82 5.881452637573669 24.025975326036928 14.879381291103686 0 0 0
759 220 3 0.41 5.6302040025494 24.975819770645366 14.600362070631897 0 0 0
760 220 3 0.41 6.6307763373429545 23.730952686694692 14.250843669119673 0 0 0
779 227 2 -0.82 2.0915562810539723 25.653216780660987 13.974876113103756 0 0 0
780 227 3 0.41 2.3686205416806945 24.69207582559089 14.209797379710778 0 0 0
781 227 3 0.41 1.7489285552898919 26.034122235607942 14.854358777986285 0 0 0
782 228 2 -0.82 4.685179048755608 26.47499530076463 14.336224917212245 0 0 0
783 228 3 0.41 3.7070972984475214 26.228962162863713 14.183238088826597 0 0 0
784 228 3 0.41 4.666078066122158 27.071766287939667 15.164976323535411 0 0 0
524 142 2 -0.82 7.565826314421851 23.963332032452303 10.345004626565904 0 0 0
526 142 3 0.41 7.731817069116233 24.89791380276023 10.713238569786741 0 0 0
527 143 2 -0.82 11.410226231109684 24.462748081352526 10.399101005172755 0 0 0
528 143 3 0.41 11.001803723269584 23.904514941862555 9.643544636047446 0 0 0
529 143 3 0.41 11.364522623839536 25.413512117048718 10.01870034630982 0 0 0
551 151 2 -0.82 7.6431872015470255 26.590688820157197 11.239756218235033 0 0 0
553 151 3 0.41 6.625246538659485 26.479769987123777 11.359202822429443 0 0 0
554 152 2 -0.82 11.353427792817916 26.75672473459703 8.950549045682479 0 0 0
555 152 3 0.41 11.311632457377213 27.73480427395578 8.730830180395715 0 0 0
761 221 2 -0.82 7.921364997249265 23.143237749353165 13.163688963438993 0 0 0
762 221 3 0.41 8.91449881467723 23.378252378143337 13.187458905282474 0 0 0
763 221 3 0.41 7.6762598673243 23.226806018223872 12.182561267192437 0 0 0
764 222 2 -0.82 10.63458790903977 23.761328666850815 12.961892464502624 0 0 0
765 222 3 0.41 10.908898592664896 23.935062652952798 11.992605773630869 0 0 0
766 222 3 0.41 10.989963069393312 24.575053846712848 13.462281241682481 0 0 0
785 229 2 -0.82 8.903427685708298 27.303352904174698 13.58495969177254 0 0 0
786 229 3 0.41 8.615812674640239 28.266849999956108 13.579156636695226 0 0 0
787 229 3 0.41 8.474927083214043 26.90286659732356 12.744575791933 0 0 0
788 230 2 -0.82 11.467533884158417 26.296359988153768 13.838257295936492 0 0 0
789 230 3 0.41 10.513638068888492 26.65905319883443 13.841713960307375 0 0 0
790 230 3 0.41 11.94154229097214 26.76150494653471 13.08510232532493 0 0 0
530 144 2 -0.82 14.045402005441005 23.800082359935594 10.017812077015419 0 0 0
531 144 3 0.41 13.073333371790293 24.085821236654848 10.15984544291906 0 0 0
533 145 2 -0.82 18.802265728060153 22.965806049755063 10.265760182075148 0 0 0
535 145 3 0.41 18.135311739544953 23.29501426409983 9.564967302987453 0 0 0
557 153 2 -0.82 15.446266442248053 26.806530043874297 12.499477495623129 0 0 0
558 153 3 0.41 15.34979732833579 26.986492687754872 11.515456059748347 0 0 0
559 153 3 0.41 15.03908304044565 27.637069727803347 12.95106998272858 0 0 0
560 154 2 -0.82 18.733049536851226 27.839929355011815 9.125532009267161 0 0 0
561 154 3 0.41 18.091449566179413 28.527944294629485 9.470808448597442 0 0 0
767 223 2 -0.82 15.417786349673474 24.061591959502515 12.350604492470184 0 0 0
768 223 3 0.41 14.975093858719902 23.93447870827803 11.435448796465787 0 0 0
769 223 3 0.41 15.346854086318565 25.0639999991933 12.52832664817523 0 0 0
770 224 2 -0.82 18.09546209340557 23.85189533010425 12.773874888677215 0 0 0
772 224 3 0.41 17.093428161839864 23.710079542324088 12.628450799644806 0 0 0
791 231 2 -0.82 14.379658724473902 29.00444082032002 13.572212326528122 0 0 0
792 231 3 0.41 14.559771375907452 0.0003914171392125354 13.45885035222054 0 1 0
793 231 3 0.41 13.937670033924316 28.868409784809064 14.47428533549794 0 0 0
794 232 2 -0.82 17.713355164988663 26.261858243806525 13.994097082103899 0 0 0
796 232 3 0.41 17.404122042115844 26.301157816710123 14.967734461969725 0 0 0
536 146 2 -0.82 21.50825772699741 23.040312678921637 9.951390942455165 0 0 0
537 146 3 0.41 21.59388761314127 23.426423033715775 9.012315780790296 0 0 0
538 146 3 0.41 20.49802705866205 22.977842030838016 10.096194258627671 0 0 0
541 147 3 0.41 22.67039721568811 23.43662689417026 11.236746660565261 0 0 0
562 154 3 0.41 18.74859110218215 27.979725152385925 8.115630097505235 0 0 0
563 155 2 -0.82 20.276713139869948 26.30578256239983 10.79236682755643 0 0 0
564 155 3 0.41 19.980305102551057 25.409966519624156 10.447361045589851 0 0 0
565 155 3 0.41 19.772824801185827 26.974683862672197 10.201829951743294 0 0 0
568 156 3 0.41 21.602240687839494 26.267367911847217 11.764217775855494 0 0 0
771 224 3 0.41 18.100892568039363 24.75296462653136 13.258159947044577 0 0 0
773 225 2 -0.82 20.622047336848766 24.19303250832061 14.008805160809429 0 0 0
774 225 3 0.41 20.224398356267237 24.11713118819149 14.960071931192147 0 0 0
775 225 3 0.41 19.835928724063333 23.936334874065395 13.417458637053537 0 0 0
795 232 3 0.41 16.900394621917716 26.541718175843084 13.444527707285689 0 0 0
797 233 2 -0.82 20.187880770582833 27.44153967352067 14.32623349404531 0 0 0
798 233 3 0.41 19.28890013206963 26.994743845714765 14.132612533892702 0 0 0
799 233 3 0.41 20.711954065995197 27.335062431940155 13.472395537520152 0 0 0
801 234 3 0.41 23.546066559454065 27.018492815185677 16.070583812113817 0 0 0
539 147 2 -0.82 23.39398836535271 23.578310276087457 11.948827523905521 0 0 0
540 147 3 0.41 24.20019168408673 23.10711205063833 11.571255820521824 0 0 0
542 148 2 -0.82 26.468919916696496 22.9771217382074 7.834658587740758 0 0 0
543 148 3 0.41 27.040248861304118 22.371690149157196 8.436623707523594 0 0 0
566 156 2 -0.82 22.403757187494012 26.32388442917032 12.409896864799423 0 0 0
567 156 3 0.41 22.99040211350322 27.03497465778265 12.002917250573343 0 0 0
569 157 2 -0.82 26.926476190053908 25.63542322316553 8.172976255066963 0 0 0
570 157 3 0.41 26.786491293233514 26.2099321736612 7.338914901780135 0 0 0
571 157 3 0.41 27.589833717059705 26.13779502879458 8.730306693107213 0 0 0
776 226 2 -0.82 25.392005198716603 24.856851432814434 14.855805484233999 0 0 0
777 226 3 0.41 25.864272680406437 24.38934883730028 15.63915021104027 0 0 0
778 226 3 0.41 25.93813565336764 25.727372248176714 14.79848958821638 0 0 0
800 234 2 -0.82 23.016156496540805 26.929634029215173 15.195583591845548 0 0 0
802 234 3 0.41 22.213902480070775 27.53703046981401 15.290175603762705 0 0 0
803 235 2 -0.82 26.813115531928386 27.13610593964011 14.981340794709306 0 0 0
804 235 3 0.41 27.51014385751423 27.71140808097347 14.548802361279398 0 0 0
805 235 3 0.41 26.80883571162096 27.39529503595037 15.97011931476955 0 0 0
1764 0 4 2 23.02407509329944 24.627011655154803 14.20658374484924 0 0 0
806 236 2 -0.82 0.9983475422575852 2.2183576068666895 17.404566026224156 0 0 0
807 236 3 0.41 1.4085638793540487 1.6856389328332608 18.175203261423036 0 0 0
808 236 3 0.41 1.1807554280304904 3.19137845854429 17.640992757296424 0 0 0
809 237 2 -0.82 5.434205300378171 0.4831710528081879 16.521111718691632 0 0 0
810 237 3 0.41 5.193094307487092 0.6957424140683717 17.496566632292126 0 0 0
811 237 3 0.41 6.30041633132463 0.9981679909957597 16.36353199418684 0 0 0
830 244 2 -0.82 1.888013936540234 4.812591958597912 18.00565368702929 0 0 0
831 244 3 0.41 2.8468308435001033 4.734812635242852 17.664836130329924 0 0 0
832 244 3 0.41 1.6472762205918183 5.775961828447679 17.79198575842199 0 0 0
833 245 2 -0.82 4.527277597280006 5.03408961101078 17.33626360170026 0 0 0
834 245 3 0.41 4.929973191118357 4.444152314377311 18.064857423841733 0 0 0
835 245 3 0.41 4.877066792672485 5.971224087940497 17.51521535346929 0 0 0
1043 315 2 -0.82 2.1846831464564196 0.9277770491106786 19.50163019535563 0 0 0
1044 315 3 0.41 2.1496985069301653 1.0110224094531906 20.514082138567176 0 0 0
1045 315 3 0.41 3.1794104749187655 0.8890092258351274 19.2819280243093 0 0 0
1046 316 2 -0.82 4.901818084686267 1.033140771279541 19.105708006759073 0 0 0
1047 316 3 0.41 4.991544295398029 2.0285841415519172 19.337541414493522 0 0 0
1048 316 3 0.41 5.452414793425039 0.5403853578318196 19.81497770311172 0 0 0
1070 324 2 -0.82 2.840990826299736 5.083301102666881 20.614655743956725 0 0 0
1071 324 3 0.41 2.321397470809587 4.821637373283625 19.776915743942478 0 0 0
1072 324 3 0.41 2.8642168160162926 6.105178342841378 20.582781197573848 0 0 0
1073 325 2 -0.82 5.004973469978864 3.6640955581557013 19.682262369055426 0 0 0
1074 325 3 0.41 4.256611544429847 4.153884729125065 20.173768182005933 0 0 0
1075 325 3 0.41 5.8839845634402055 4.043919912435379 20.042044237688863 0 0 0
812 238 2 -0.82 7.637787631902827 2.13879851945305 16.05009797453531 0 0 0
813 238 3 0.41 7.45584686678048 2.9615767072310315 16.633862946829744 0 0 0
814 238 3 0.41 8.621142144081256 1.9711427741708583 16.250021342605088 0 0 0
815 239 2 -0.82 10.35157788861888 2.4331193302284104 16.786161647228557 0 0 0
816 239 3 0.41 10.305215604311273 3.4346171043134337 16.570022132642517 0 0 0
817 239 3 0.41 11.301963204129711 2.156457875854496 16.617610167913586 0 0 0
836 246 2 -0.82 7.758951113002946 4.32787875248816 17.66952181162852 0 0 0
837 246 3 0.41 8.577022682083284 4.8163752671917806 17.334772313995316 0 0 0
838 246 3 0.41 7.712268428445871 4.46972551051241 18.67627677474064 0 0 0
839 247 2 -0.82 10.283153235045063 5.066238700203899 16.15065723785129 0 0 0
840 247 3 0.41 10.718591504524042 5.912387897221156 16.522341344938656 0 0 0
841 247 3 0.41 10.340272852353099 5.167979845950274 15.143535447583615 0 0 0
1049 317 2 -0.82 7.9110785434904125 2.0074854670614473 21.080381984026733 0 0 0
1050 317 3 0.41 8.802040250135635 2.0083199999430987 20.581240843297493 0 0 0
1051 317 3 0.41 7.570170546435354 1.0493250394365334 21.08883165189636 0 0 0
1052 318 2 -0.82 10.124265498575756 2.6428875117863133 19.587445520770384 0 0 0
1053 318 3 0.41 10.128887893554396 2.4799851402801174 18.586373458487216 0 0 0
1054 318 3 0.41 10.589095369143466 3.533476429310873 19.735257560574 0 0 0
1076 326 2 -0.82 7.42445859886928 4.55557591114259 20.47516883431267 0 0 0
1077 326 3 0.41 7.6490318376607345 3.579606017397297 20.712881153741414 0 0 0
1078 326 3 0.41 7.638263375446097 5.067651610714299 21.32259972226339 0 0 0
1079 327 2 -0.82 11.38901561440694 5.178983171833671 19.933419998472154 0 0 0
1081 327 3 0.41 11.113201645401622 6.094835531700612 19.604476788642465 0 0 0
818 240 2 -0.82 15.650860240558378 1.0322681419494977 17.821434568845312 0 0 0
819 240 3 0.41 15.36985514290258 1.2213354122285927 18.786228117737895 0 0 0
820 240 3 0.41 15.44031558387385 1.91954029085301 17.358191834679843 0 0 0
821 241 2 -0.82 18.21483670451966 1.663254947703494 16.959924774983286 0 0 0
822 241 3 0.41 17.35396009131017 1.2801669266207398 17.35715138224922 0 0 0
842 248 2 -0.82 15.268009110214843 3.61449838216959 16.96542189121925 0 0 0
843 248 3 0.41 15.038372497725788 4.149686442085088 16.1283671604244 0 0 0
844 248 3 0.41 14.848056588132115 4.108966297074108 17.76025838412225 0 0 0
845 249 2 -0.82 17.758204303976413 4.714491401169697 17.181493753894458 0 0 0
846 249 3 0.41 17.63935515911732 5.684848615945457 16.892630904814496 0 0 0
847 249 3 0.41 16.8288663153915 4.297050523506602 17.09824108150627 0 0 0
1055 319 2 -0.82 14.9494002747731 2.0817202347454744 20.246249608517108 0 0 0
1056 319 3 0.41 14.485866004542876 1.93054682976805 21.142761765811336 0 0 0
1057 319 3 0.41 14.613771372384802 3.002373293245914 19.95250613671665 0 0 0
1058 320 2 -0.82 17.446297773224092 3.1198942222883197 19.616553683707217 0 0 0
1060 320 3 0.41 16.656587030457022 2.5561311584000608 19.929756451371386 0 0 0
1080 327 3 0.41 12.38859416570601 5.088928810689342 19.726095107606426 0 0 0
1082 328 2 -0.82 17.183185859720165 5.776749650916587 20.306309609718824 0 0 0
1083 328 3 0.41 16.217702856219518 5.7361112268100385 19.977905780323812 0 0 0
1084 328 3 0.41 17.1467534409676 5.840685446277028 21.319273894030047 0 0 0
1767 0 5 -1 14.387979116838327 4.9543963917338845 19.517863563393124 0 0 0
823 241 3 0.41 17.969225430518723 1.796178051402167 15.97363413582485 0 0 0
825 242 3 0.41 22.25667881548601 2.269897848786363 16.893037411546608 0 0 0
848 250 2 -0.82 20.580705799421835 5.022444184193278 16.715863723796772 0 0 0
849 250 3 0.41 20.73550555429122 5.999546157781491 16.97744733501949 0 0 0
850 250 3 0.41 20.535157802841454 5.049598618400442 15.699494683354295 0 0 0
853 251 3 0.41 23.704364890357617 3.681717502565611 15.922720857233182 0 0 0
1059 320 3 0.41 17.2072850554438 4.0612271526685655 19.923348609116985 0 0 0
1061 321 2 -0.82 20.089201881812546 1.9173564513680472 20.244046580792737 0 0 0
1062 321 3 0.41 19.573550345884918 2.0805305205112328 21.11656477596171 0 0 0
1063 321 3 0.41 20.75506680792262 1.184169296327915 20.52542599872313 0 0 0
1066 322 3 0.41 23.215642924985197 1.2791778859749277 20.212344446344467 0 0 0
1085 329 2 -0.82 19.771967158753192 5.1131543184915245 19.943578079041647 0 0 0
1086 329 3 0.41 20.154583104250666 5.212959720037151 20.885282499431405 0 0 0
1087 329 3 0.41 18.868967556515845 5.589180112876197 20.028024286721024 0 0 0
1089 330 3 0.41 23.753675392032633 3.9876439658142036 19.488820970777827 0 0 0
1765 0 4 2 19.537829782555168 3.317020042139149 18.26847149266897 0 0 0
824 242 2 -0.82 21.75394926904419 2.3843973256395112 17.77587230996342 0 0 0
826 242 3 0.41 22.461648203078678 2.191485195228892 18.49703134904108 0 0 0
827 243 2 -0.82 28.246417351896064 0.0558747278992357 18.607400802271655 0 0 0
828 243 3 0.41 27.57446172081531 0.750292361284363 18.947160610632174 0 0 0
829 243 3 0.41 29.027853989546227 0.6070027674433913 18.28452141079027 0 0 0
851 251 2 -0.82 24.197585627047964 4.509937081463455 16.241461290280647 0 0 0
852 251 3 0.41 24.028375178573864 4.583983689539046 17.244794460715532 0 0 0
854 252 2 -0.82 26.489169360722094 5.871764334274652 16.21521374415694 0 0 0
855 252 3 0.41 26.934092709240083 5.505976946117543 17.05038366269001 0 0 0
856 252 3 0.41 25.59866812237391 5.360048435731419 16.181085513697212 0 0 0
1064 322 2 -0.82 23.63132011772811 2.0461405628888114 19.674420646660355 0 0 0
1065 322 3 0.41 24.62315565099878 1.8372495536973972 19.613584702223875 0 0 0
1067 323 2 -0.82 26.55386294486254 2.0423826864784296 19.46395359284214 0 0 0
1068 323 3 0.41 26.75770053972135 3.0092461441449663 19.22497848478012 0 0 0
1088 330 2 -0.82 24.059579353089106 4.807825805430369 18.97439543282 0 0 0
1090 330 3 0.41 23.675019922388586 5.635219837549073 19.430100211748243 0 0 0
1091 331 2 -0.82 26.790645025841947 4.877573197221463 19.00182015800371 0 0 0
1092 331 3 0.41 27.108306943749323 5.4267501227130035 19.796203829186755 0 0 0
1093 331 3 0.41 25.770896325864257 4.927495237948704 19.00326958420285 0 0 0
857 253 2 -0.82 1.9783153222986425 7.6196386418356035 17.796900101709905 0 0 0
858 253 3 0.41 1.3363078119006786 8.357430682532469 17.55881543552516 0 0 0
859 253 3 0.41 2.1818472211963296 7.716457711664011 18.79965497937382 0 0 0
860 254 2 -0.82 4.7559109421833545 7.811198028869514 17.744408207387497 0 0 0
861 254 3 0.41 3.743370984509603 7.744052112575494 17.640234145827346 0 0 0
862 254 3 0.41 4.898220864658038 8.353590937508876 18.598340568954374 0 0 0
884 262 2 -0.82 1.2218893453651969 12.131832387428997 16.67996575818685 0 0 0
885 262 3 0.41 1.4387384229883697 13.118220087303511 16.552224941223923 0 0 0
886 262 3 0.41 1.268261050787826 12.008363347153347 17.690888609249082 0 0 0
887 263 2 -0.82 5.016656449043924 12.188982345984288 17.41929220620103 0 0 0
888 263 3 0.41 6.029577001176893 12.075464412819581 17.52606924102012 0 0 0
889 263 3 0.41 4.726109278489682 11.533490926772451 16.712723022853545 0 0 0
1094 332 2 -0.82 2.8292709305258805 7.816196453005043 20.324184965588568 0 0 0
1095 332 3 0.41 3.6726420172300225 8.38374610631666 20.42578324525889 0 0 0
1096 332 3 0.41 2.1892992311965016 8.129597689586937 21.06979091371614 0 0 0
1097 333 2 -0.82 5.142565720205852 9.360805133354209 20.030442388869663 0 0 0
1098 333 3 0.41 4.961686835932498 10.349697742752243 20.164002889765584 0 0 0
1099 333 3 0.41 6.124185978702031 9.219039603637576 20.278373847040132 0 0 0
1121 341 2 -0.82 1.4514781365062874 12.302881241688066 19.396466252685766 0 0 0
1122 341 3 0.41 2.4050460626049914 12.120766595179818 19.68537876335382 0 0 0
1124 342 2 -0.82 4.252517036541692 12.231154768552102 20.012978694279177 0 0 0
1126 342 3 0.41 4.4629197543200165 12.166269212184297 19.01130921482399 0 0 0
863 255 2 -0.82 7.008143613423267 8.12390453889448 16.273447669481055 0 0 0
864 255 3 0.41 7.672750806108515 8.424054828670297 16.96335362180583 0 0 0
865 255 3 0.41 6.129945308594612 7.983967539750956 16.77862026640568 0 0 0
866 256 2 -0.82 11.546440887257331 7.452348739420585 16.71272653239698 0 0 0
868 256 3 0.41 11.58556850592612 8.287651233819416 17.300404754175283 0 0 0
890 264 2 -0.82 7.696712187056485 12.16290307386006 17.81123343328436 0 0 0
891 264 3 0.41 8.098529664766925 11.913868047802918 18.714481762752435 0 0 0
893 265 2 -0.82 11.911224839320056 9.80408038138689 18.134806229501503 0 0 0
894 265 3 0.41 12.653603558716181 10.222334234622844 17.578592803129975 0 0 0
895 265 3 0.41 11.615076004430032 10.616390433758518 18.687022341589422 0 0 0
1100 334 2 -0.82 7.92172398996695 9.1523366167279 20.489870235614756 0 0 0
1102 334 3 0.41 8.09631183998302 10.161763466889484 20.440691222148605 0 0 0
1103 335 2 -0.82 10.505008220666717 8.196447747259452 19.941178217330055 0 0 0
1104 335 3 0.41 11.054904095022028 8.764064772426552 19.297537155524648 0 0 0
1105 335 3 0.41 10.931629793480141 8.3147229212714 20.856902172090372 0 0 0
1127 343 2 -0.82 8.420105064476125 11.802504249068605 20.483100266432004 0 0 0
1128 343 3 0.41 8.078599291802758 12.766599742511746 20.51447213171277 0 0 0
1130 344 2 -0.82 11.623163846343175 12.101198774928804 19.505344813654478 0 0 0
1132 344 3 0.41 12.622780807500655 12.190984769494852 19.655082073943355 0 0 0
867 256 3 0.41 12.48676523830467 7.3606560483357795 16.330976968558556 0 0 0
869 257 2 -0.82 15.257285008809005 8.946245560635044 17.27819920191485 0 0 0
870 257 3 0.41 14.9666876617361 8.638076908306418 18.213707047986162 0 0 0
871 257 3 0.41 14.860115046229353 9.88513813452385 17.175481651209722 0 0 0
872 258 2 -0.82 17.525988586253934 7.5177593873276285 16.700761820240132 0 0 0
873 258 3 0.41 16.672527685599327 8.038221149847566 16.920280387154616 0 0 0
896 266 2 -0.82 13.952769018034328 11.301252602188258 16.837078386856287 0 0 0
897 266 3 0.41 13.805707569553645 11.590024905776934 15.870050500987244 0 0 0
899 267 2 -0.82 17.68280591759406 11.78747019381091 16.661621989208626 0 0 0
901 267 3 0.41 17.221968083102723 11.585509323793392 17.545004323737434 0 0 0
1106 336 2 -0.82 14.64350142982696 7.906542385514818 19.68096594440642 0 0 0
1107 336 3 0.41 14.27874761721539 7.9428644723752 20.633295373177702 0 0 0
1108 336 3 0.41 14.500117915916299 6.920918322441465 19.442012786223458 0 0 0
1109 337 2 -0.82 16.775179035472487 9.207106388149201 20.90735320395576 0 0 0
1110 337 3 0.41 16.94082751092081 10.092014715559348 20.442887262128128 0 0 0
1133 345 2 -0.82 14.431893850237394 12.076245786131635 20.07058483846794 0 0 0
1136 346 2 -0.82 17.031689939435882 11.61848370196055 19.411783818373173 0 0 0
1138 346 3 0.41 16.017048621239365 11.673963371384177 19.545320935394507 0 0 0
874 258 3 0.41 18.176006483985997 7.733824333381461 17.438997202781614 0 0 0
875 259 2 -0.82 20.776275926077215 7.715270064739869 17.408178981509653 0 0 0
876 259 3 0.41 20.49457352405816 8.623648919881475 17.041820114581117 0 0 0
877 259 3 0.41 20.768389021059622 7.846820652327325 18.420761992575176 0 0 0
880 260 3 0.41 22.68615433640434 8.002173393119513 17.004533071192075 0 0 0
902 268 2 -0.82 19.956493248523135 10.338351510884058 16.95885445090523 0 0 0
903 268 3 0.41 20.10536654701192 10.596650667898281 17.934414656388835 0 0 0
904 268 3 0.41 19.07731644976354 10.805958271135482 16.72935157384036 0 0 0
907 269 3 0.41 23.667673801239463 10.084757592547057 17.289129391908734 0 0 0
1112 338 2 -0.82 20.808338549462427 8.467894753741597 20.05336172984904 0 0 0
1113 338 3 0.41 20.391433621622344 9.394251562572737 19.94552396826761 0 0 0
1114 338 3 0.41 20.83384598691086 8.316479245990319 21.06206499472493 0 0 0
1116 339 3 0.41 22.34264025039185 7.6870669748327165 19.90894350754241 0 0 0
1137 346 3 0.41 17.35861532547671 12.54255875070538 19.709011743932127 0 0 0
1139 347 2 -0.82 19.763904366935982 10.973122380127673 19.634286278787652 0 0 0
1140 347 3 0.41 18.756299686014206 11.119179387528511 19.65391097159977 0 0 0
1141 347 3 0.41 20.16274314564277 11.727300702359813 20.170873519738645 0 0 0
1144 348 3 0.41 24.604703720534285 11.265780102988312 20.757834901688252 0 0 0
878 260 2 -0.82 23.58852166676063 8.344489293646973 17.313308327078303 0 0 0
879 260 3 0.41 23.683106101938368 7.943100775766723 18.247114051597574 0 0 0
881 261 2 -0.82 26.07286649183027 8.573145412616448 16.152753090148288 0 0 0
882 261 3 0.41 26.37390012905244 7.597244823343072 16.20200328007829 0 0 0
883 261 3 0.41 25.125843557274482 8.537970521051639 16.536363859747762 0 0 0
905 269 2 -0.82 23.873511854746244 11.079602907819893 17.373292664896347 0 0 0
906 269 3 0.41 24.18152200493374 11.181787523056446 18.348329962486776 0 0 0
908 270 2 -0.82 26.739094489659017 11.088222051925388 17.196099638031992 0 0 0
909 270 3 0.41 26.666894055059565 10.122544387804897 16.872549553609996 0 0 0
910 270 3 0.41 27.268360343935505 11.063144151849585 18.054205354385648 0 0 0
1115 339 2 -0.82 23.29936476066871 7.338245653341802 19.861341482808204 0 0 0
1117 339 3 0.41 23.756582666236223 7.740656786987453 20.675813940741193 0 0 0
1118 340 2 -0.82 27.69951841298408 6.369312258106571 21.32640143684736 0 0 0
1119 340 3 0.41 28.701079648128836 6.480164531897483 21.337117636074208 0 0 0
1120 340 3 0.41 27.3369350363401 7.173176900292132 21.842651956735722 0 0 0
1142 348 2 -0.82 24.987453902154652 11.265461495781386 19.813325189870895 0 0 0
1143 348 3 0.41 25.983456813351516 11.41874425327776 19.92261954856985 0 0 0
1145 349 2 -0.82 27.753578118789473 11.847252735118492 20.12524699379415 0 0 0
1147 349 3 0.41 28.75481210771366 11.749648516079024 20.037740280482037 0 0 0
911 271 2 -0.82 1.591153373965709 14.850374175733577 16.79305434580459 0 0 0
912 271 3 0.41 1.8029162652679434 15.854736942028936 16.72210236643746 0 0 0
913 271 3 0.41 1.1827805199388144 14.764891812735176 17.709453788688435 0 0 0
914 272 2 -0.82 5.578230244132793 14.593482466130464 15.980439579599029 0 0 0
915 272 3 0.41 5.1351765234324205 13.8654809745581 16.534560181436227 0 0 0
916 272 3 0.41 6.503108619371385 14.695997063518215 16.40658102110792 0 0 0
938 280 2 -0.82 2.265047565519416 17.41363319393573 16.677423240796905 0 0 0
941 281 2 -0.82 4.817846264646475 17.549589442118947 17.60958138906331 0 0 0
942 281 3 0.41 4.584808055072615 17.695382495032515 18.59095970799929 0 0 0
1123 341 3 0.41 1.2459640497140319 13.241638919050944 19.748992637915983 0 0 0
1125 342 3 0.41 4.585127252422956 13.171278887185428 20.24080439096282 0 0 0
1148 350 2 -0.82 1.05322406148314 14.815263742574269 20.308841266269013 0 0 0
1149 350 3 0.41 0.9071826423719211 14.806648876790861 21.31502851684692 0 0 0
1150 350 3 0.41 1.205728787575619 15.804743398648172 20.11111220899298 0 0 0
1151 351 2 -0.82 4.980991361801429 14.815117889021243 20.619037189152436 0 0 0
1152 351 3 0.41 4.753989668253779 15.677161187529363 20.143525797687854 0 0 0
1175 359 2 -0.82 1.6283032469726537 17.488357608971967 20.199517567883635 0 0 0
1177 359 3 0.41 2.6442454742612287 17.57616056123151 20.148908510487875 0 0 0
1178 360 2 -0.82 4.3087467789981835 17.91340148783613 20.26850687614714 0 0 0
892 264 3 0.41 7.873491742511384 13.165996660730842 17.700933667620983 0 0 0
917 273 2 -0.82 7.998291747854662 14.796784810331097 17.20162750291457 0 0 0
918 273 3 0.41 7.769209566062057 15.753879191889313 17.496957865466 0 0 0
919 273 3 0.41 8.980759981372477 14.87939153417626 16.94078375730087 0 0 0
920 274 2 -0.82 10.67746778206149 15.152230772628116 16.790410058273764 0 0 0
921 274 3 0.41 11.092027886103109 16.0723706780718 16.63380298487762 0 0 0
922 274 3 0.41 10.754483251211715 14.978501216419087 17.792905739249782 0 0 0
944 282 2 -0.82 7.490680470826001 17.31735439593373 17.883490621284377 0 0 0
945 282 3 0.41 7.608224739284285 17.438998553703932 18.896715265432697 0 0 0
947 283 2 -0.82 11.905568137014331 17.652592994078297 16.403828925013226 0 0 0
948 283 3 0.41 12.905555236364659 17.562079662324674 16.57508185172181 0 0 0
1131 344 3 0.41 11.220911608082847 13.034674912727532 19.51966467449788 0 0 0
1154 352 2 -0.82 7.745207338106626 14.393780641002998 20.72273968015953 0 0 0
1155 352 3 0.41 7.862514618080831 14.69708323184563 21.68915486086009 0 0 0
1156 352 3 0.41 6.767269815991812 14.59310547759651 20.51923392631868 0 0 0
1157 353 2 -0.82 10.40245621260721 14.689041127124607 19.561628326483465 0 0 0
1158 353 3 0.41 9.426570568566158 14.623325302941698 19.842197136521087 0 0 0
1159 353 3 0.41 10.817226109899172 15.35256600274239 20.21700303333855 0 0 0
1181 361 2 -0.82 7.662822948631128 17.93602983938975 20.473925501881588 0 0 0
1184 362 2 -0.82 11.561396571063826 16.405275841149127 21.409943885017817 0 0 0
1185 362 3 0.41 11.29574792324974 17.145583792998146 22.06222378328782 0 0 0
898 266 3 0.41 14.105876916184197 12.192524054828874 17.3139183578037 0 0 0
900 267 3 0.41 17.914414022455237 12.781225976153564 16.73434974835446 0 0 0
923 275 2 -0.82 14.373978666366023 13.948097065709183 17.637483365078367 0 0 0
924 275 3 0.41 14.421244321380875 14.35575145844475 18.56543219766385 0 0 0
925 275 3 0.41 14.398895045129104 14.711795196876425 16.985249887359167 0 0 0
926 276 2 -0.82 18.342201844534845 14.371479676491141 17.305442992336463 0 0 0
927 276 3 0.41 17.94191184240476 15.290908794225643 17.11381026548195 0 0 0
950 284 2 -0.82 14.686785212646821 17.628797765222096 16.79955558317856 0 0 0
951 284 3 0.41 15.61852037988559 17.307192148510392 17.06893591625443 0 0 0
953 285 2 -0.82 17.354280269753364 16.942365584579644 17.15036285042595 0 0 0
1134 345 3 0.41 14.49217863441385 13.093664981896962 20.042277282995407 0 0 0
1160 354 2 -0.82 14.501483413966877 14.784302906714812 20.34620781279839 0 0 0
1161 354 3 0.41 14.377803067402178 14.609245517364581 21.340318296469576 0 0 0
1162 354 3 0.41 14.438856438721038 15.803378497512925 20.30373407841009 0 0 0
1163 355 2 -0.82 18.01543851756601 14.092466032188549 20.015956884841458 0 0 0
1164 355 3 0.41 17.47384747757226 14.722113666171019 20.58866413422053 0 0 0
1187 363 2 -0.82 14.090524253388631 17.41297108799792 20.90972719833623 0 0 0
1190 364 2 -0.82 18.54370592460932 18.044168759914307 19.320275358132196 0 0 0
928 276 3 0.41 18.182695799361518 14.252143131964996 18.305672451325655 0 0 0
929 277 2 -0.82 21.15631240019385 14.858487034369148 17.57280891803429 0 0 0
930 277 3 0.41 20.235373370137594 14.536207626877172 17.292243742119968 0 0 0
931 277 3 0.41 21.157869860035866 15.844091715837132 17.28597871324654 0 0 0
933 278 3 0.41 22.861748159282293 14.273604376079723 17.585734207186306 0 0 0
956 286 2 -0.82 20.84809307478087 17.409679779359042 16.70495721136615 0 0 0
958 286 3 0.41 20.754251500701873 17.589679799299617 15.723090803070333 0 0 0
1165 355 3 0.41 18.993129909730744 14.33587613784785 20.206752223507927 0 0 0
1166 356 2 -0.82 20.625632442087618 14.76547709520426 20.262558971900873 0 0 0
1167 356 3 0.41 20.960154354335135 14.690333248423098 19.300915862763755 0 0 0
1168 356 3 0.41 20.817668691202723 15.751068111321054 20.48652043238278 0 0 0
1170 357 3 0.41 24.259459565797773 16.257152420657228 19.733839219420844 0 0 0
1192 364 3 0.41 19.415514859415094 17.815395539922722 19.797177351777677 0 0 0
1768 0 5 -1 21.16770917300086 17.598255143991988 20.9055767757115 0 0 0
932 278 2 -0.82 23.84195964105185 14.009032637794403 17.694503444134227 0 0 0
934 278 3 0.41 24.118317417947377 14.43626848149608 18.582171901529104 0 0 0
935 279 2 -0.82 26.783446091753135 14.153918447260544 17.41313043439648 0 0 0
936 279 3 0.41 27.00979843961821 14.08709075892652 18.40183443316129 0 0 0
937 279 3 0.41 26.92732020719761 15.1506742099596 17.248806085289207 0 0 0
959 287 2 -0.82 24.419249989944213 17.11539761539976 16.785092139390972 0 0 0
960 287 3 0.41 25.381733141640375 16.994211346519496 17.098870871794254 0 0 0
962 288 2 -0.82 26.972969563744613 16.911895180998446 17.729448893628398 0 0 0
963 288 3 0.41 26.966022532978858 16.975444662393752 18.74366125165692 0 0 0
1146 349 3 0.41 27.572794701601637 12.858156990289045 20.106840207651135 0 0 0
1169 357 2 -0.82 24.533529021107892 15.310979376056514 19.99148160412955 0 0 0
1171 357 3 0.41 24.29843019259285 15.261274564465785 20.991886978969713 0 0 0
1172 358 2 -0.82 27.10132779833975 14.44783411173396 20.154873065848616 0 0 0
1173 358 3 0.41 26.11973364383481 14.741601374689964 20.1280371950691 0 0 0
1174 358 3 0.41 27.54109807722035 15.126151933372688 20.758501641311693 0 0 0
1193 365 2 -0.82 23.825672655266164 17.94737145824699 19.532804043207978 0 0 0
1196 366 2 -0.82 26.519580425838093 17.758584150384237 20.368902272357833 0 0 0
939 280 3 0.41 2.182714241097717 18.15624750085322 15.985701319643361 0 0 0
940 280 3 0.41 3.2148313788113883 17.490613694189193 17.038536536544676 0 0 0
943 281 3 0.41 5.827903266739727 17.39285189731527 17.63135079107462 0 0 0
965 289 2 -0.82 1.9680456113149225 21.177353425838604 16.938560531162373 0 0 0
966 289 3 0.41 1.6466685111219852 20.741744629183348 17.799572434962833 0 0 0
967 289 3 0.41 1.8738011316481644 22.177595738568684 17.08880034828309 0 0 0
968 290 2 -0.82 5.171902922738754 20.961168088104642 17.230523300499733 0 0 0
969 290 3 0.41 4.4317900571790885 20.933536623650323 16.5445210351354 0 0 0
970 290 3 0.41 5.476326366725205 21.937124682706784 17.291968281850323 0 0 0
1176 359 3 0.41 1.2876317224634972 18.278341933900908 19.659637831011278 0 0 0
1179 360 3 0.41 4.382008934324998 18.93264603645603 20.20188955589947 0 0 0
1199 367 2 -0.82 1.5657191130307524 20.26541913239846 19.555426711934754 0 0 0
1200 367 3 0.41 1.124925777144692 20.636865112160155 20.37904235742378 0 0 0
1201 367 3 0.41 2.570745901817677 20.40567347860205 19.674302827138852 0 0 0
1202 368 2 -0.82 4.26078453051369 20.62945126772351 19.754225846973263 0 0 0
1203 368 3 0.41 4.501247558276142 21.576972849145488 20.041015317608178 0 0 0
1204 368 3 0.41 4.607080340325863 20.59556068979353 18.7907320027851 0 0 0
1227 376 3 0.41 1.9335521959948438 24.14294363307893 21.01430602193471 0 0 0
946 282 3 0.41 7.757877635032433 18.219467087057755 17.487377542615942 0 0 0
949 283 3 0.41 11.61026704679942 18.45471469489814 16.96226797327421 0 0 0
971 291 2 -0.82 7.718544544328585 20.012075632503755 17.308742800043273 0 0 0
972 291 3 0.41 8.032725234630702 20.257967175229084 18.244885804777432 0 0 0
973 291 3 0.41 6.73476921280926 20.28696755560601 17.281006667752997 0 0 0
974 292 2 -0.82 11.60380956446409 20.05407960165477 17.779115417091347 0 0 0
975 292 3 0.41 12.6212307066271 20.101275478323753 17.73795976685706 0 0 0
976 292 3 0.41 11.27574674249794 20.91742872165242 17.34571383608717 0 0 0
1002 301 3 0.41 11.178522820141046 22.13746406037669 15.69494417386327 0 0 0
1183 361 3 0.41 7.829371557536659 18.92055568939577 20.267225375878493 0 0 0
1186 362 3 0.41 12.448382087440908 16.728099058987127 21.02649766173096 0 0 0
1205 369 2 -0.82 8.141025872534808 20.59956525677635 20.018454224646334 0 0 0
1206 369 3 0.41 8.235801295211239 21.60829031910936 19.885184899022146 0 0 0
1208 370 2 -0.82 11.701239488022162 21.141843003459858 20.365671040741372 0 0 0
1209 370 3 0.41 11.416312467858662 20.75088287987848 19.468121038258584 0 0 0
1210 370 3 0.41 11.470017402576824 22.13759929886564 20.33754495283523 0 0 0
952 284 3 0.41 14.612504629842245 18.567535075843864 17.209616880032115 0 0 0
954 285 3 0.41 17.818516006331393 17.354092554046826 17.969789787425768 0 0 0
977 293 2 -0.82 14.345939490201745 20.08481685505004 17.851932931309516 0 0 0
978 293 3 0.41 14.388585043061989 21.05851660406646 17.518111043674097 0 0 0
979 293 3 0.41 14.429936510914365 20.141918873213672 18.86732676250195 0 0 0
980 294 2 -0.82 18.097122342270822 21.253688588718763 17.07301209761279 0 0 0
981 294 3 0.41 17.685178019263837 22.179051151995527 16.93486150952936 0 0 0
982 294 3 0.41 17.779872702386644 20.990690568617133 18.003021524202044 0 0 0
1006 302 3 0.41 16.023254298527725 23.47398375375682 16.87569102068097 0 0 0
1188 363 3 0.41 14.199640045341107 18.382656508296865 20.61237502538742 0 0 0
1191 364 3 0.41 18.289029217092786 18.96448346784879 19.638878542632593 0 0 0
1211 371 2 -0.82 14.193835947861087 20.134664166199773 20.579004244004743 0 0 0
1212 371 3 0.41 13.259915602044604 20.552301466548432 20.51330807623139 0 0 0
1213 371 3 0.41 14.465990790214995 20.285922863758557 21.550527930812105 0 0 0
1214 372 2 -0.82 17.38947967494628 21.106471554757814 19.758215323856085 0 0 0
1215 372 3 0.41 16.430950789869087 21.422883255682784 19.769815883900588 0 0 0
955 285 3 0.41 17.80568855903496 17.358447524145262 16.339738760919733 0 0 0
957 286 3 0.41 20.739216150761003 18.31675092546684 17.157689487183664 0 0 0
961 287 3 0.41 23.93324949683982 17.47004730314715 17.598896938109295 0 0 0
983 295 2 -0.82 20.539233506008625 20.03062869929019 17.57690715831832 0 0 0
984 295 3 0.41 19.68222244210466 20.510417103967974 17.309672295456878 0 0 0
985 295 3 0.41 20.64224237378543 20.217240062298185 18.577218541399528 0 0 0
988 296 3 0.41 22.12305063758498 20.428410806140125 16.96577151568594 0 0 0
1012 304 3 0.41 22.33067402666454 24.094035195787672 17.452089278019802 0 0 0
1194 365 3 0.41 22.90158469675918 17.763545646214283 19.93950061219157 0 0 0
1216 372 3 0.41 17.957405096884155 21.953176141668685 19.86400849884368 0 0 0
1217 373 2 -0.82 20.95933483850118 20.43561152534683 20.241449287430125 0 0 0
1218 373 3 0.41 20.967750019948852 19.44253179992088 20.506784968652934 0 0 0
1219 373 3 0.41 20.88456924202498 20.925939279757706 21.136316218831944 0 0 0
1221 374 3 0.41 22.599538770474677 20.60230540367124 19.825893258031872 0 0 0
964 288 3 0.41 27.184428962112435 17.874554116793334 17.452528972142765 0 0 0
986 296 2 -0.82 23.0870080159422 20.736765718761728 16.848344448454927 0 0 0
987 296 3 0.41 23.456633664371815 20.740966903988223 17.794585083137424 0 0 0
989 297 2 -0.82 27.07444101343317 19.619108213523432 17.528126607341616 0 0 0
990 297 3 0.41 26.512104234866875 20.253304756704182 16.99105588907076 0 0 0
991 297 3 0.41 27.129510130715936 20.002368025601772 18.470776621761274 0 0 0
1195 365 3 0.41 23.86394977511021 18.96846721034417 19.493179383529004 0 0 0
1197 366 3 0.41 26.81024665057625 18.730108504326285 20.303161696612023 0 0 0
1198 366 3 0.41 25.515896351048003 17.78654268629541 20.20952530580106 0 0 0
1220 374 2 -0.82 23.576112210820614 20.695961501611734 19.539593675746126 0 0 0
1222 374 3 0.41 23.766353577691326 21.685505312780826 19.731685930981204 0 0 0
1223 375 2 -0.82 26.834412338452886 20.554364271777175 20.10798457742065 0 0 0
1225 375 3 0.41 26.18933348193998 21.30608775183642 19.930958669992606 0 0 0
992 298 2 -0.82 2.104650690713361 23.929894654614895 17.426603075971613 0 0 0
993 298 3 0.41 1.9774812002524758 24.875319567434182 17.068088973417648 0 0 0
994 298 3 0.41 2.0634231605089592 24.04931981985845 18.439369014910373 0 0 0
995 299 2 -0.82 6.109450077867501 23.486542163764064 17.520709250848498 0 0 0
996 299 3 0.41 5.963701041979202 23.788301452455734 16.55271093629179 0 0 0
997 299 3 0.41 7.11905151622369 23.600633835407464 17.629253315825448 0 0 0
1016 306 2 -0.82 1.8887329930568295 26.59217973445259 16.596682823840247 0 0 0
1017 306 3 0.41 2.7606240237628494 27.12760909549251 16.585214903067605 0 0 0
1018 306 3 0.41 1.2405421250056026 27.148605852774043 17.129133477353033 0 0 0
1019 307 2 -0.82 4.283298120473923 27.966776520523258 16.632387436400865 0 0 0
1020 307 3 0.41 4.670175759842645 28.902323619662532 16.485852395991508 0 0 0
1021 307 3 0.41 4.379211963662893 27.82363971495426 17.64236780058986 0 0 0
1226 376 2 -0.82 2.1713602736730677 24.511783615516666 20.0967541360623 0 0 0
1228 376 3 0.41 1.9205206275088815 25.502735234939863 20.131223317149193 0 0 0
1229 377 2 -0.82 4.711355993404456 23.37822192512984 19.954071901942363 0 0 0
1230 377 3 0.41 5.254193010707093 23.513941706452837 19.097268433952717 0 0 0
1231 377 3 0.41 3.8094523535381977 23.823954519635105 19.792164821906578 0 0 0
1253 385 2 -0.82 1.6915293761906884 27.228933667509104 20.144210706018395 0 0 0
1254 385 3 0.41 2.510197080870446 27.577115727314197 19.652212646278752 0 0 0
1256 386 2 -0.82 4.400136129632366 27.704630115834984 19.347347761189454 0 0 0
1258 386 3 0.41 5.021025246108597 28.44508892923385 19.674025043329237 0 0 0
998 300 2 -0.82 8.843016553276895 23.864633461533586 17.44134912359689 0 0 0
999 300 3 0.41 9.68492255397931 23.386403316516972 17.110415559615245 0 0 0
1000 300 3 0.41 8.82215730923856 24.75576660702232 16.93239568934043 0 0 0
1001 301 2 -0.82 11.146723684584268 22.515381889422027 16.64088282510886 0 0 0
1003 301 3 0.41 12.107339340473942 22.82553219311043 16.821608378228305 0 0 0
1022 308 2 -0.82 8.527172601998322 26.24521731787766 16.142568546454125 0 0 0
1023 308 3 0.41 7.975539002306154 26.94425784261677 16.60764896928756 0 0 0
1024 308 3 0.41 8.648926178351248 26.55561391941191 15.180608035693309 0 0 0
1025 309 2 -0.82 13.144200057587604 27.849465479824456 15.83613786801209 0 0 0
1026 309 3 0.41 12.22490058293382 27.971793635614826 16.226014607461266 0 0 0
1027 309 3 0.41 13.086491985506296 26.96837412602309 15.340504282159435 0 0 0
1232 378 2 -0.82 8.58203314933735 23.267161524077963 20.064318030820136 0 0 0
1233 378 3 0.41 8.653361719669691 23.59104157926047 19.09602251969548 0 0 0
1234 378 3 0.41 9.500520466380943 23.49067727421922 20.463025986402467 0 0 0
1235 379 2 -0.82 11.03916160730587 23.73017388138093 21.028658877326553 0 0 0
1236 379 3 0.41 11.167116198557839 24.72164741438898 20.799560331069856 0 0 0
1237 379 3 0.41 11.456246780219017 23.64869936212009 21.954630233385906 0 0 0
1259 387 2 -0.82 9.06091982974019 27.81041179447057 20.820616758749306 0 0 0
1260 387 3 0.41 8.911186155320845 27.76190012256751 21.827480925469416 0 0 0
1261 387 3 0.41 8.236880801803887 28.3191853922856 20.521203216021885 0 0 0
1262 388 2 -0.82 11.357793573741796 26.38629709741761 20.728985751178154 0 0 0
1263 388 3 0.41 10.517674983186922 26.96815025600933 20.61623894473785 0 0 0
1004 302 2 -0.82 17.006655299877792 23.76878086329519 16.81789644476668 0 0 0
1005 302 3 0.41 16.9473546706128 24.787683860619545 16.80896777055481 0 0 0
1028 310 2 -0.82 15.197771202353918 28.304714521194143 17.60889788925053 0 0 0
1029 310 3 0.41 14.449464043908929 28.196295188014222 16.921748413583828 0 0 0
1030 310 3 0.41 15.389464450720105 29.308243938234114 17.656939592698958 0 0 0
1031 311 2 -0.82 17.094893265370754 26.534763190602018 16.664151422535163 0 0 0
1033 311 3 0.41 16.368154376060424 27.127601263998287 17.067872372751793 0 0 0
1238 380 2 -0.82 14.37251110228091 24.19038486750115 19.804699843611292 0 0 0
1239 380 3 0.41 14.26207332926231 23.779599566230637 18.875404308806594 0 0 0
1241 381 2 -0.82 18.76529041115654 23.42353983536756 20.26390774702901 0 0 0
1243 381 3 0.41 18.54677415281631 24.416932231618194 20.204834023600664 0 0 0
1264 388 3 0.41 12.077935325060214 26.750278120837187 20.113240189906993 0 0 0
1265 389 2 -0.82 13.949154144988205 27.02477701773255 19.713301968378328 0 0 0
1266 389 3 0.41 14.188312456807651 27.562541335523044 20.529762107693443 0 0 0
1267 389 3 0.41 14.435296903310565 27.464062664059934 18.930874751034487 0 0 0
1268 390 2 -0.82 18.21119222136019 26.13407152595498 20.609235856957078 0 0 0
1269 390 3 0.41 17.312426490427683 26.57591506962691 20.53397186335639 0 0 0
1766 0 5 -1 14.158774217868164 22.908677333541835 17.00011891191248 0 0 0
1007 303 2 -0.82 19.70158146375141 24.00376609912117 16.46684761844994 0 0 0
1008 303 3 0.41 18.701295837619686 23.916961869649253 16.643580924419226 0 0 0
1009 303 3 0.41 20.158489142848712 23.89301255770932 17.364849864867605 0 0 0
1032 311 3 0.41 17.96789809094508 27.020536302175177 16.870229651650256 0 0 0
1034 312 2 -0.82 19.425263827175378 28.007376092376237 16.879489313694908 0 0 0
1035 312 3 0.41 19.76286542995018 27.81803148381534 15.931870904929912 0 0 0
1036 312 3 0.41 19.44396516161497 29.008719555074016 16.985297287690173 0 0 0
1039 313 3 0.41 23.83224167845017 27.04314819897244 18.4292430942914 0 0 0
1244 382 2 -0.82 21.16989221484785 23.97044436571272 18.906482703176533 0 0 0
1245 382 3 0.41 20.95896358825492 24.972068107420753 18.984861812689864 0 0 0
1246 382 3 0.41 20.462070674135795 23.533670396325263 19.497352518138573 0 0 0
1248 383 3 0.41 22.74386023772581 23.584220561278475 19.636391223689287 0 0 0
1270 390 3 0.41 18.36940986151216 26.053571224710993 21.62399657396001 0 0 0
1271 391 2 -0.82 20.369284213132044 26.530543501368797 19.01036190805115 0 0 0
1272 391 3 0.41 19.57813024745379 26.48490778973455 19.658754047021176 0 0 0
1273 391 3 0.41 20.03513140413446 27.08560589634606 18.222231698985254 0 0 0
1275 392 3 0.41 21.923781400349768 27.11788197228965 19.52946384118641 0 0 0
1010 304 2 -0.82 22.89344423362393 24.49106690008755 16.70320830660306 0 0 0
1011 304 3 0.41 23.48968540539949 25.179836624004242 17.167800862598273 0 0 0
1013 305 2 -0.82 26.86152124144353 23.96218253169552 17.011969053351855 0 0 0
1014 305 3 0.41 26.88425368908635 24.407923618553628 17.93016983989752 0 0 0
1015 305 3 0.41 27.735120396501372 23.475342863617428 16.936918570454228 0 0 0
1037 313 2 -0.82 24.307098417803378 26.732986507752823 17.570490686773887 0 0 0
1038 313 3 0.41 25.252805421786917 27.106564800672036 17.64559889570101 0 0 0
1040 314 2 -0.82 26.885509566418015 27.839465853473612 17.61703188055645 0 0 0
1041 314 3 0.41 27.20886986732002 28.776760101634558 17.85541262274975 0 0 0
1042 314 3 0.41 27.432802000469376 27.25309572319038 18.235533501385202 0 0 0
1247 383 2 -0.82 23.69325523483456 23.3514543537341 19.92133063093357 0 0 0
1249 383 3 0.41 24.123421354440218 24.216714519891692 20.196045529378054 0 0 0
1250 384 2 -0.82 27.3029938232924 25.101953519128386 19.51232485765921 0 0 0
1251 384 3 0.41 27.950075089375183 25.868853329042768 19.681217804390442 0 0 0
1252 384 3 0.41 27.038242346969586 24.73351232058869 20.421102947857147 0 0 0
1274 392 2 -0.82 22.86921151810697 27.455937683097783 19.694970907477366 0 0 0
1276 392 3 0.41 22.721086368146736 28.306093560642083 20.250135068029213 0 0 0
1277 393 2 -0.82 28.92529318943766 27.404433986906366 19.587014864602178 0 0 0
1278 393 3 0.41 28.765886087059037 28.39667544636925 19.428683629870694 0 0 0
1279 393 3 0.41 29.91386769344296 27.32604876048886 19.81838792038304 0 0 0
1280 394 2 -0.82 2.4383102593103723 1.145902053615794 22.28172509742827 0 0 0
1281 394 3 0.41 1.9892928740293232 1.9289297407542643 22.729689089729106 0 0 0
1282 394 3 0.41 3.4287962023631144 1.2336253981801648 22.541719073435477 0 0 0
1283 395 2 -0.82 5.03121078212148 1.3743004371013363 22.93171602138695 0 0 0
1284 395 3 0.41 5.5434974692618155 0.720752386116521 22.330251465742226 0 0 0
1285 395 3 0.41 5.503284755730289 2.2725542677610653 22.851880070029765 0 0 0
1301 401 2 -0.82 3.0450245454380416 4.468768336049338 23.2664578121915 0 0 0
1302 401 3 0.41 2.8768360305995593 4.62571233029315 22.269927065210375 0 0 0
1303 401 3 0.41 4.030691695940759 4.203723057454498 23.325932362516564 0 0 0
1304 402 2 -0.82 5.7409996035235595 4.050068622670849 23.46105782217218 0 0 0
1305 402 3 0.41 6.5782554451413855 4.580366048048974 23.232095702053726 0 0 0
1306 402 3 0.41 5.795120855096248 3.9035323034594684 24.47116019126115 0 0 0
1519 473 3 0.41 5.408799443115589 1.0682776307504107 24.61353015752823 0 0 0
1542 481 3 0.41 0.9711391392229333 5.428117205672049 25.492387749646657 0 0 0
1543 481 3 0.41 1.7456838079183967 4.429110997164972 24.477794828575245 0 0 0
1545 482 3 0.41 5.525938339417769 4.077600528193156 26.97597373551156 0 0 0
1546 482 3 0.41 6.919023174829007 4.1837378350009224 26.155955409493767 0 0 0
1286 396 2 -0.82 11.252616734314381 2.582037653199364 23.791150877870304 0 0 0
1287 396 3 0.41 12.134661294666701 2.2960531511423405 23.365803613418638 0 0 0
1288 396 3 0.41 10.853771451226459 3.2419420480234566 23.127804830677224 0 0 0
1307 403 2 -0.82 8.103237686113216 5.5421460086829155 23.05703724209086 0 0 0
1308 403 3 0.41 8.183469417023549 6.560803344462639 23.05306321576841 0 0 0
1309 403 3 0.41 9.057044956150948 5.223628265204708 22.847480483908956 0 0 0
1310 404 2 -0.82 10.683034062355711 4.985229659631918 22.543704284441397 0 0 0
1311 404 3 0.41 10.961788694333332 5.033213406215499 21.558686777586015 0 0 0
1312 404 3 0.41 11.395926430127766 5.474752044434805 23.072464381258722 0 0 0
1525 475 3 0.41 10.35797251334318 1.6656693874479558 25.007848996925098 0 0 0
1548 483 3 0.41 9.3155276178503 4.7918283866237035 25.99101447817208 0 0 0
1549 483 3 0.41 8.275410437836662 5.212168704262312 24.816451146362375 0 0 0
1552 484 3 0.41 11.148886606305421 3.6821432727584176 25.072916108971963 0 0 0
1769 0 5 -1 6.323672844253134 29.340467267030743 21.134886706903288 0 -1 0
1289 397 2 -0.82 13.80528492206854 2.3123797555617713 22.76299800110605 0 0 0
1290 397 3 0.41 14.095502078066628 3.2896351791977843 22.79392625111796 0 0 0
1291 397 3 0.41 14.218616598713512 1.8873436249288258 23.59914210635702 0 0 0
1292 398 2 -0.82 18.875081495349985 2.512369971312889 22.608613449920576 0 0 0
1293 398 3 0.41 19.485632623335984 2.3789437497292467 23.41798267495713 0 0 0
1294 398 3 0.41 18.313445209270846 3.3297812142634626 22.80699351351718 0 0 0
1313 405 2 -0.82 14.773728074437138 4.86778543206023 22.515162617401074 0 0 0
1314 405 3 0.41 14.65659994020988 4.848815446705485 21.49809338883692 0 0 0
1315 405 3 0.41 15.773241690878695 4.853959830446029 22.711269114008093 0 0 0
1316 406 2 -0.82 17.54707258060324 5.103458870057607 23.00701217564003 0 0 0
1317 406 3 0.41 17.401044813152335 5.447118062030053 23.965410636911468 0 0 0
1531 477 3 0.41 17.768262195292504 1.27864051561118 23.971933062220263 0 0 0
1297 399 3 0.41 23.105232597070444 1.0073626587732005 22.46619060681465 0 0 0
1318 406 3 0.41 18.531565313857588 5.326887970240601 22.83784143170631 0 0 0
1319 407 2 -0.82 20.205998762732545 5.631697399401935 22.647014765671145 0 0 0
1320 407 3 0.41 20.57199242856193 5.225895082731254 23.511293428260966 0 0 0
1321 407 3 0.41 20.64538485005308 6.553384825812954 22.61368061709901 0 0 0
1323 408 3 0.41 23.921988066029073 6.677652863258925 22.641570033334567 0 0 0
1533 478 3 0.41 20.577855318941406 3.238410128907325 25.075714203573384 0 0 0
1770 0 5 -1 22.103453362528363 29.909123894397307 21.224690220550524 0 -1 0
1069 323 3 0.41 26.513962534321088 2.012632011557912 20.49051495459585 0 0 0
1295 399 2 -0.82 23.600219962819857 1.7478895257512774 22.982115593561094 0 0 0
1296 399 3 0.41 23.181878531150574 2.6039177976757446 22.662005105123036 0 0 0
1298 400 2 -0.82 26.194487094486785 2.0446858095028673 22.110666847797372 0 0 0
1299 400 3 0.41 26.430259271905445 2.927866475834719 22.55884027987932 0 0 0
1300 400 3 0.41 25.29906091509626 1.7784129711258738 22.517981495191325 0 0 0
1322 408 2 -0.82 24.017974320259732 5.688810571928533 22.830250259161794 0 0 0
1324 408 3 0.41 23.77337811319955 5.55885447982995 23.811683836351467 0 0 0
1325 409 2 -0.82 26.46080926505965 4.598891904206617 23.04109111862401 0 0 0
1326 409 3 0.41 27.041583514509984 5.1546271387437015 22.415234058104257 0 0 0
1327 409 3 0.41 25.512432817407124 4.953126224394587 22.881493697805162 0 0 0
1536 479 3 0.41 23.628363531953223 1.504830745840602 26.149608288310336 0 0 0
1539 480 3 0.41 25.967137563212255 1.5292401684552996 27.268987549145677 0 0 0
1540 480 3 0.41 25.556478763131647 2.7985158928659613 26.35117498707728 0 0 0
1564 488 3 0.41 24.570732693730463 4.959460356661101 25.800589226904243 0 0 0
1566 489 3 0.41 27.21436032774646 4.386651895299198 26.094832202923882 0 0 0
1567 489 3 0.41 26.396942798616625 4.324444381194146 24.711170918533238 0 0 0
1328 410 2 -0.82 1.202109945342238 8.516843914989641 22.309345375244483 0 0 0
1329 410 3 0.41 0.952048298527694 9.430224069004726 22.701948666217294 0 0 0
1330 410 3 0.41 1.8134569431063519 8.074456861150644 23.002549566396333 0 0 0
1331 411 2 -0.82 3.0905316176810036 7.279002509565711 23.85588327419133 0 0 0
1332 411 3 0.41 3.3499956627958376 6.306798052047424 23.69714537054703 0 0 0
1333 411 3 0.41 3.937484247226805 7.774669577077223 24.170619138340196 0 0 0
1355 419 2 -0.82 0.7641781329750957 11.015961938583986 23.291926550615543 0 0 0
1356 419 3 0.41 1.5866195312470022 11.530914112285812 22.976202771222415 0 0 0
1357 419 3 0.41 0.5259590158870537 11.376723493273579 24.20009859641398 0 0 0
1358 420 2 -0.82 3.1377041862712414 12.259767757028436 22.590682710354393 0 0 0
1360 420 3 0.41 3.5383056914011712 12.05495793111546 21.676874738717345 0 0 0
1569 490 3 0.41 1.9005204209288722 7.191657963299194 25.029940451115813 0 0 0
1572 491 3 0.41 4.623589502766743 9.741069798549546 24.946146490418975 0 0 0
1600 500 3 0.41 3.4968820624814723 11.4393874366021 24.119133754128715 0 0 0
1101 334 3 0.41 8.769845802845667 8.720505673080083 20.120344315994164 0 0 0
1129 343 3 0.41 9.055577774921096 11.79352603068023 21.28395338802756 0 0 0
1334 412 2 -0.82 8.738777123361938 8.212711451071828 22.959235091651564 0 0 0
1335 412 3 0.41 9.742522476122137 8.302024611386399 22.796037617314354 0 0 0
1336 412 3 0.41 8.30119369324817 8.566942299994787 22.105666517137948 0 0 0
1337 413 2 -0.82 11.488740532193688 8.475180116488264 22.543756924496567 0 0 0
1338 413 3 0.41 12.434296553717646 8.10180554824061 22.38840086167773 0 0 0
1339 413 3 0.41 11.67862627751018 9.399593213541301 22.9514050676326 0 0 0
1361 421 2 -0.82 9.726727674619037 12.201841129883565 22.8510816487755 0 0 0
1362 421 3 0.41 9.24175247043956 12.04259177939757 23.737997459911174 0 0 0
1363 421 3 0.41 10.113598841716003 13.145692739245964 22.943382824047085 0 0 0
1364 422 2 -0.82 11.958149803931398 10.902223481976328 23.59477399202829 0 0 0
1365 422 3 0.41 11.155220569467398 11.362462616670454 23.157040226023828 0 0 0
1366 422 3 0.41 11.928658322372911 11.241362758323127 24.554537957804556 0 0 0
1575 492 3 0.41 8.15943700350401 8.876305704003043 24.421641458000593 0 0 0
1576 492 3 0.41 8.114183366568133 8.60154483294544 26.017367678704 0 0 0
1578 493 3 0.41 11.625564209771653 7.2941808270708535 23.969903770715945 0 0 0
1603 501 3 0.41 8.269328808091045 10.980020806996105 25.44678817668719 0 0 0
1605 502 3 0.41 10.37896830233324 12.182034541632271 25.85007348312409 0 0 0
1606 502 3 0.41 11.488820221954118 13.362497443054819 25.958957527835203 0 0 0
1111 337 3 0.41 16.097639323845797 8.708174564816105 20.33780553578724 0 0 0
1135 345 3 0.41 14.36862494983043 11.847279452770708 21.065843829159768 0 0 0
1340 414 2 -0.82 13.97758248701374 7.506780589595406 22.290346745271027 0 0 0
1341 414 3 0.41 14.7243089859114 7.978658612365018 22.80843809861559 0 0 0
1342 414 3 0.41 14.13053684301944 6.519366755365635 22.499959568730826 0 0 0
1343 415 2 -0.82 16.141544287713867 8.642430176800572 23.48788148727371 0 0 0
1344 415 3 0.41 16.463980559744623 8.940095264142377 22.560667322531245 0 0 0
1345 415 3 0.41 16.986786598463386 8.62582617463479 24.05568424124755 0 0 0
1367 423 2 -0.82 14.314397424223547 11.9740703105092 22.749175693299847 0 0 0
1369 423 3 0.41 13.51206614768032 11.447330527710545 23.10441635239976 0 0 0
1370 424 2 -0.82 17.063248407837992 12.139169566644055 22.76128746318218 0 0 0
1372 424 3 0.41 16.06867844263116 11.913505266703037 22.735297755155408 0 0 0
1582 494 3 0.41 13.80740604466812 9.122386004393826 25.83528633193519 0 0 0
1612 504 3 0.41 17.739314052894017 11.557286831764122 24.207471143485716 0 0 0
1346 416 2 -0.82 21.44514368241616 8.056593669675843 22.7009963967375 0 0 0
1347 416 3 0.41 22.437118207666856 8.249048419656093 22.576076309070388 0 0 0
1348 416 3 0.41 21.255955853071296 8.334757801729417 23.666742637782722 0 0 0
1351 417 3 0.41 24.08797403215469 9.504384963899511 22.29869231352726 0 0 0
1371 424 3 0.41 17.128971693143576 13.151553061113054 22.768684129770005 0 0 0
1373 425 2 -0.82 22.3787090240495 12.179903268443484 24.09257593221558 0 0 0
1374 425 3 0.41 21.642001203033203 11.880385095875988 24.73370993129614 0 0 0
1378 426 3 0.41 23.57338601886708 11.609228969760075 23.030201318923947 0 0 0
1588 496 3 0.41 22.106115722865457 8.384354270002575 25.710873752365657 0 0 0
1615 505 3 0.41 19.64130530166539 11.389707203059562 25.67556985151861 0 0 0
1617 506 3 0.41 23.378281820917373 11.356827470657306 25.24898369275068 0 0 0
1349 417 2 -0.82 24.155849176065995 8.482578063378101 22.250567313413484 0 0 0
1350 417 3 0.41 25.145130748291248 8.344933178552946 22.469892244375785 0 0 0
1352 418 2 -0.82 26.821765430328128 8.483513892516013 22.879975112468095 0 0 0
1353 418 3 0.41 27.310701048434577 9.345846453088487 22.697220713318288 0 0 0
1354 418 3 0.41 26.842833711910945 8.388066271256298 23.89902375850757 0 0 0
1376 426 2 -0.82 24.312458037706524 11.1913066785703 22.45668908240284 0 0 0
1377 426 3 0.41 25.17382300321405 11.654034021272501 22.736831969097288 0 0 0
1379 427 2 -0.82 26.99506586201458 12.048171291277477 22.82327168979512 0 0 0
1381 427 3 0.41 27.301669124420574 11.877764944130012 21.869838962157434 0 0 0
1590 497 3 0.41 25.133039629075345 8.080145646737565 25.84878668051637 0 0 0
1620 507 3 0.41 26.709117143429257 11.519442616547863 24.41524002104964 0 0 0
1153 351 3 0.41 4.564572347791302 14.898592715016546 21.544486151324612 0 0 0
1180 360 3 0.41 4.686248025386078 17.69574029817247 21.191120649065713 0 0 0
1359 420 3 0.41 3.3380070490481786 13.244705830441735 22.75095763421848 0 0 0
1382 428 2 -0.82 1.0006305826102957 15.268360233231574 23.053178482739433 0 0 0
1383 428 3 0.41 1.9850541235701098 15.059317860361395 23.199136913102475 0 0 0
1384 428 3 0.41 0.9475129940293909 16.28061592394314 23.14613032496075 0 0 0
1385 429 2 -0.82 3.798358586490177 14.931384692482432 23.159208878169363 0 0 0
1386 429 3 0.41 4.218879779917695 15.869034970989745 23.153230387437585 0 0 0
1387 429 3 0.41 4.062118873961201 14.544218565034557 24.072959831999942 0 0 0
1409 437 2 -0.82 1.431217069744662 18.043435605483108 22.88717806575651 0 0 0
1412 438 2 -0.82 5.076422195728685 17.317402494974306 22.860894116992167 0 0 0
1599 500 3 0.41 4.014245356947728 12.164031753540606 25.44057597363167 0 0 0
1623 508 3 0.41 2.939506242093841 16.720378755100835 26.319396391437966 0 0 0
1627 509 3 0.41 4.020545464635157 14.580670599138696 26.135582521860837 0 0 0
1654 518 3 0.41 4.206023757916531 18.340865483499012 25.805710047382163 0 0 0
1182 361 3 0.41 7.746070703707589 17.83853279658642 21.477653516578837 0 0 0
1388 430 2 -0.82 8.135635519772613 15.258058595388661 23.31896302525275 0 0 0
1389 430 3 0.41 9.139196954735109 15.055345298590316 23.365331573174746 0 0 0
1390 430 3 0.41 8.062800042265193 16.276612634468904 23.276834963109874 0 0 0
1391 431 2 -0.82 10.757685081507448 14.65736747787516 23.361608546892317 0 0 0
1392 431 3 0.41 11.262506497846545 14.844874329074134 24.23164310287573 0 0 0
1393 431 3 0.41 11.207356948269426 15.223720682813987 22.639246457026857 0 0 0
1415 439 2 -0.82 7.746330206210195 17.948618806261756 23.318635840091716 0 0 0
1416 439 3 0.41 7.743211915867307 17.9683985967546 24.344739087263015 0 0 0
1418 440 2 -0.82 11.294120570895831 18.196976519400433 23.475423863602803 0 0 0
1420 440 3 0.41 10.903598975041149 17.99680516252248 24.398353523896084 0 0 0
1629 510 3 0.41 7.46835742142175 14.940341566592249 26.314572785118855 0 0 0
1630 510 3 0.41 7.458068748816044 14.573113703510684 24.737360157203877 0 0 0
1368 423 3 0.41 14.17797376976146 12.930472080347261 23.07599620361356 0 0 0
1394 432 2 -0.82 14.41340078505652 14.692120201755502 23.159434856262674 0 0 0
1395 432 3 0.41 14.088397564208627 15.6550123394413 23.300466456106175 0 0 0
1396 432 3 0.41 15.437830044648498 14.762951992071118 23.181737525586026 0 0 0
1397 433 2 -0.82 17.0640984078098 14.91476705025815 23.26879961661642 0 0 0
1398 433 3 0.41 17.349680859590702 14.60563575306855 24.202103773224184 0 0 0
1399 433 3 0.41 17.30681593169736 15.910285697785746 23.24074229944285 0 0 0
1421 441 2 -0.82 13.810610833723066 17.247255346581994 23.629502723379403 0 0 0
1424 442 2 -0.82 17.764359265749277 17.564796346059282 23.317290488480634 0 0 0
1425 442 3 0.41 17.71031898540154 18.471366724096598 22.845962573865148 0 0 0
1635 512 3 0.41 14.631978987813742 15.031803262525615 25.1714068255364 0 0 0
1639 513 3 0.41 16.725076472234907 14.510122433120047 26.307898041154907 0 0 0
1665 522 3 0.41 17.368287504177363 18.45466074577496 24.781911567523714 0 0 0
1375 425 3 0.41 21.9993680366652 13.02223839613903 23.64783533217465 0 0 0
1400 434 2 -0.82 21.354648206959183 14.358479183716847 22.88590266227511 0 0 0
1401 434 3 0.41 20.909745547088008 15.18699097986045 23.27646724266673 0 0 0
1402 434 3 0.41 21.09204431059488 14.364177845517299 21.89987278837811 0 0 0
1404 435 3 0.41 23.016309756566933 15.021194694012433 22.84155236166706 0 0 0
1426 442 3 0.41 18.758701934757433 17.33973988912259 23.374110214855744 0 0 0
1427 443 2 -0.82 20.357337841301593 16.8223135943846 23.635467812071784 0 0 0
1428 443 3 0.41 20.72490172591761 17.5483408781732 24.26145496469299 0 0 0
1431 444 3 0.41 22.61107995633109 18.030809319842643 22.2581293908196 0 0 0
1614 505 3 0.41 20.67228540814424 11.736536647435035 26.87996909827577 0 0 0
1638 513 3 0.41 18.353248471318693 14.620402642512387 26.10526216617479 0 0 0
1642 514 3 0.41 20.771648179626673 15.533853958239554 26.454730764272988 0 0 0
1644 515 3 0.41 22.994627557252816 16.66002582668565 26.57153414943314 0 0 0
1380 427 3 0.41 27.49149309166371 12.903109799355633 23.08969557791654 0 0 0
1403 435 2 -0.82 23.88434012280093 15.473154363996835 22.574173782123307 0 0 0
1405 435 3 0.41 23.79605266846663 16.447261889136705 22.865554002369958 0 0 0
1406 436 2 -0.82 28.416306972446915 14.325143637435708 23.505995822156255 0 0 0
1407 436 3 0.41 27.931717471489527 15.192681202300038 23.241581653425204 0 0 0
1408 436 3 0.41 29.402430480652413 14.555192810578252 23.380066564941405 0 0 0
1430 444 2 -0.82 23.318330008359275 18.123877262736162 22.98525205019762 0 0 0
1433 445 2 -0.82 27.28053404052736 16.640888815372826 22.793444849633875 0 0 0
1435 445 3 0.41 26.89628697665563 17.20588036489115 23.548881398717874 0 0 0
1647 516 3 0.41 27.86372408983487 14.021918095932387 25.114352740875557 0 0 0
1648 516 3 0.41 27.54410639596151 14.59953495422403 26.59712650142342 0 0 0
1674 525 3 0.41 25.30855186710196 18.08074187793753 25.11927024350035 0 0 0
1410 437 3 0.41 1.4295340369819594 17.78854995749535 21.89851456268323 0 0 0
1411 437 3 0.41 1.4570500916435 19.0618904864874 22.875272849520037 0 0 0
1413 438 3 0.41 6.071996886755351 17.390485422018966 23.05663318272812 0 0 0
1414 438 3 0.41 4.752275650840697 18.27667110480762 23.037454932345963 0 0 0
1436 446 2 -0.82 1.8956630660676075 20.795322300053385 22.97433720128911 0 0 0
1437 446 3 0.41 1.8545221757252943 21.784230438504846 22.728007824059805 0 0 0
1438 446 3 0.41 1.957349099566293 20.801518997768827 23.99534370064785 0 0 0
1439 447 2 -0.82 4.517180172262101 19.928358682968337 22.918330843493084 0 0 0
1440 447 3 0.41 3.5676320580295404 20.28220210878682 22.831384199296323 0 0 0
1441 447 3 0.41 5.141321703880561 20.703755058462505 22.770369881192977 0 0 0
1467 456 3 0.41 4.901415435708966 24.00371722260135 21.55333957475415 0 0 0
1651 517 3 0.41 2.069193190542819 17.988800464509033 24.54073121662938 0 0 0
1653 518 3 0.41 5.082599524593858 19.663338543658703 26.11980855812966 0 0 0
1677 526 3 0.41 2.0392492519756633 21.943057268755886 25.77459537070062 0 0 0
1678 526 3 0.41 3.322004472819793 21.015677847872652 25.99937854252112 0 0 0
1681 527 3 0.41 4.980819632224764 22.314509980418148 25.862594213394708 0 0 0
1708 536 3 0.41 4.9533935825817075 24.023378345186913 24.150911655244204 0 0 0
1207 369 3 0.41 8.290657331440626 20.50653812441491 21.023676201114085 0 0 0
1417 439 3 0.41 8.012770888251902 18.915443185448076 23.08963585467465 0 0 0
1419 440 3 0.41 11.212631525122628 19.211012804929037 23.35596553160247 0 0 0
1442 448 2 -0.82 8.470825410204302 20.46222366986227 22.719469631664314 0 0 0
1443 448 3 0.41 8.001840132222384 21.370656310696507 22.823452754000236 0 0 0
1444 448 3 0.41 9.448105721582985 20.64943224395805 22.951161197283334 0 0 0
1445 449 2 -0.82 11.152559824113025 20.883660356150195 23.00092989468722 0 0 0
1446 449 3 0.41 11.36902538970036 20.932592608171948 21.99978795260995 0 0 0
1447 449 3 0.41 11.59154611970113 21.702013602502873 23.40214272809835 0 0 0
1474 458 3 0.41 12.064642111778728 23.602442354429 24.46198501837118 0 0 0
1656 519 3 0.41 8.017518768304202 19.09431772040452 26.175995028441623 0 0 0
1683 528 3 0.41 8.179417657142897 21.634589561072648 26.3181072510497 0 0 0
1684 528 3 0.41 9.493895074263792 20.667660684502795 26.386739465180494 0 0 0
1189 363 3 0.41 14.191538226860356 17.44730325140217 21.924923710563913 0 0 0
1242 381 3 0.41 18.516615470528166 23.199733471693524 21.227820451320827 0 0 0
1422 441 3 0.41 14.194980036894561 17.611533257510175 24.506200698868664 0 0 0
1423 441 3 0.41 12.864859034388504 17.63716733554598 23.593177533109472 0 0 0
1448 450 2 -0.82 14.938803287351416 20.63371512904765 23.170841978163676 0 0 0
1449 450 3 0.41 14.940852298199365 21.623197973406924 22.90633970764203 0 0 0
1450 450 3 0.41 15.90997052398655 20.33309785075977 23.09982295976982 0 0 0
1451 451 2 -0.82 17.57675632037453 20.14664529871037 22.37561912579018 0 0 0
1452 451 3 0.41 17.556967749861716 20.386123466682044 21.38670795844151 0 0 0
1453 451 3 0.41 17.895681500522812 21.001402479302758 22.824672489635706 0 0 0
1477 459 3 0.41 14.651770323595613 23.550420286615275 21.32496381998939 0 0 0
1662 521 3 0.41 14.128670747013327 18.890517593749102 26.294398342051817 0 0 0
1689 530 3 0.41 13.977295652957514 21.654568750667092 25.905023542537382 0 0 0
1690 530 3 0.41 14.07896304530797 20.59791915365993 24.693202537999607 0 0 0
1693 531 3 0.41 18.412867272698534 22.194212549668716 25.595133843087385 0 0 0
1429 443 3 0.41 20.663215599597674 17.115203123422937 22.697810639707924 0 0 0
1454 452 2 -0.82 21.10387521618289 21.570521729370885 22.699920812743258 0 0 0
1455 452 3 0.41 21.04911890904183 21.430940268918924 23.703044716952846 0 0 0
1456 452 3 0.41 21.02919430759496 22.59219545844353 22.592318639691626 0 0 0
1459 453 3 0.41 22.767770175720916 21.05565912159972 22.729651058174397 0 0 0
1666 522 3 0.41 17.631658236804878 19.85232409905106 25.57538384167493 0 0 0
1692 531 3 0.41 19.664895591376713 21.203739214266353 25.50698604273335 0 0 0
1695 532 3 0.41 22.399804484198995 21.17155780736764 25.770495476249966 0 0 0
1696 532 3 0.41 21.348015795095257 22.38825765750809 25.758223284894502 0 0 0
1725 542 3 0.41 22.78960324245053 23.7582592682957 26.415634091185932 0 0 0
1224 375 3 0.41 26.786717320847785 20.428056844942272 21.127097991210356 0 0 0
1432 444 3 0.41 23.556215950344413 19.111259119233647 23.022977082977377 0 0 0
1434 445 3 0.41 26.98335004331191 17.102878371588655 21.93600895628438 0 0 0
1457 453 2 -0.82 23.741457914457527 20.886987125530045 22.97578810240201 0 0 0
1458 453 3 0.41 24.062559207503742 21.816102630021994 23.260486870277735 0 0 0
1460 454 2 -0.82 26.327660500087326 20.12126965401375 22.679243655552494 0 0 0
1461 454 3 0.41 25.35230915257041 20.40770725571241 22.76831313992598 0 0 0
1462 454 3 0.41 26.44645764308698 19.431706977450126 23.416602832997214 0 0 0
1486 462 3 0.41 24.369798770611386 23.426998458766874 24.718529193880624 0 0 0
1701 534 3 0.41 27.028278415322138 21.51044974957032 26.054742132494237 0 0 0
1255 385 3 0.41 1.7693501786286376 27.667558160816174 21.06652738322447 0 0 0
1257 386 3 0.41 4.464511281319887 27.046354501704926 20.112769146090248 0 0 0
1463 455 2 -0.82 2.1773571339178788 23.525915713524846 22.742897163734924 0 0 0
1464 455 3 0.41 1.9405496239428313 23.71478704180987 23.71462549451873 0 0 0
1465 455 3 0.41 3.1427303721967292 23.841474314649005 22.654112339544447 0 0 0
1466 456 2 -0.82 4.798042101754573 24.3829467926392 22.500072131082057 0 0 0
1468 456 3 0.41 4.7730477027232086 25.405671719858038 22.370299362776677 0 0 0
1490 464 2 -0.82 2.184741861367147 28.423382120417706 22.55080009977717 0 0 0
1491 464 3 0.41 1.6107591492798339 28.357375281371166 23.396156573364372 0 0 0
1492 464 3 0.41 2.276342697677017 29.43309203882744 22.410210925941584 0 0 0
1493 465 2 -0.82 4.545752772294768 27.033765063244285 22.09584870059491 0 0 0
1494 465 3 0.41 5.239585487413312 27.764670671480534 21.91637971272308 0 0 0
1495 465 3 0.41 3.7057964367934737 27.545344779136105 22.372343377170747 0 0 0
1704 535 3 0.41 1.9098295529421154 24.566762449828666 26.11087652113082 0 0 0
1707 536 3 0.41 5.172192358395705 24.861192175836543 25.508257453277043 0 0 0
1469 457 2 -0.82 7.307791747857489 22.886635501336777 22.467307931827477 0 0 0
1470 457 3 0.41 7.727144932083098 23.125906906505573 21.565308387161057 0 0 0
1471 457 3 0.41 6.672519672879101 23.6411146521825 22.675370520144547 0 0 0
1472 458 2 -0.82 12.290684799796695 23.730607595540686 23.470923268085574 0 0 0
1473 458 3 0.41 12.349254977250894 24.75083209121294 23.392865302889916 0 0 0
1496 466 2 -0.82 8.086404164904451 28.131940249757193 23.36510022597069 0 0 0
1497 466 3 0.41 7.437303335593581 28.627861431897905 22.757558170236432 0 0 0
1498 466 3 0.41 8.095725170497296 28.63047919025228 24.251166863985308 0 0 0
1499 467 2 -0.82 12.320167082359816 26.454124263258556 23.275875424307582 0 0 0
1500 467 3 0.41 11.881044979351591 26.507151821487376 22.353600930622342 0 0 0
1501 467 3 0.41 12.958742749328522 27.254366914377446 23.305152052495416 0 0 0
1711 537 3 0.41 7.992877504776327 24.03154029841777 26.684252852010815 0 0 0
1740 547 3 0.41 11.81912502753377 26.5338848581385 24.903478128904535 0 0 0
1240 380 3 0.41 14.153249833632003 25.175823025558884 19.694293376931043 0 0 0
1475 459 2 -0.82 14.761775695281685 23.168092082741644 22.273972477127813 0 0 0
1476 459 3 0.41 13.899889048120444 23.432667441317612 22.74718655115717 0 0 0
1478 460 2 -0.82 17.4973204085139 23.013540295199913 22.657585363507398 0 0 0
1480 460 3 0.41 16.490063169037445 23.148397553004145 22.573608791054923 0 0 0
1502 468 2 -0.82 14.046629971138469 28.544556449493484 23.64251660060374 0 0 0
1503 468 3 0.41 14.194725859222146 29.534614123952313 23.77228723598674 0 0 0
1504 468 3 0.41 14.341819166884207 28.124101215171724 24.51928839029334 0 0 0
1719 540 3 0.41 18.660926548276873 24.51441087424077 25.0457741045892 0 0 0
1743 548 3 0.41 13.358487116615967 27.02932680885852 26.16787481851131 0 0 0
1744 548 3 0.41 14.463396718265153 27.991375640686616 26.866476078389184 0 0 0
1771 0 5 -1 18.541375970407014 25.699103518383 23.513346502844875 0 0 0
1479 460 3 0.41 17.84334774535889 23.89697916614312 23.04056760485423 0 0 0
1481 461 2 -0.82 21.00477367743273 24.217525795475698 22.639025984147363 0 0 0
1482 461 3 0.41 21.810115189776962 24.8252361106109 22.765221287161516 0 0 0
1483 461 3 0.41 20.19543593965648 24.76800986885273 22.932976218344084 0 0 0
1485 462 3 0.41 23.845320743122162 24.237801633207923 23.44258080184457 0 0 0
1505 469 2 -0.82 21.269565179682818 27.686340178881267 23.32961159509484 0 0 0
1506 469 3 0.41 21.45145277203661 28.470095660071745 22.69603572789319 0 0 0
1507 469 3 0.41 20.2956042378369 27.432845082998423 23.20402973817053 0 0 0
1509 470 3 0.41 22.53752822789387 26.57805638437115 23.16884033725463 0 0 0
1722 541 3 0.41 20.14180905641248 23.992031956296717 26.2408653940421 0 0 0
1723 541 3 0.41 21.31808473720414 25.06606140422726 26.060459542602658 0 0 0
1750 550 3 0.41 21.55762673846544 27.13021246413081 24.961525123218106 0 0 0
1752 551 3 0.41 23.27066132028666 26.544523582157627 26.482686604314942 0 0 0
1484 462 2 -0.82 24.40345913686435 23.42058967002534 23.700691267283577 0 0 0
1487 463 2 -0.82 26.573116184340417 24.162887219312346 22.108434597237533 0 0 0
1488 463 3 0.41 27.326482040333996 23.629519547795194 22.509523460453757 0 0 0
1489 463 3 0.41 25.746288333519825 23.818456673172314 22.60101200145146 0 0 0
1508 470 2 -0.82 23.205675444247184 25.802866084127615 23.141720084146858 0 0 0
1510 470 3 0.41 24.116278337605628 26.25797522070434 23.083181042206228 0 0 0
1511 471 2 -0.82 25.795565999877795 26.689902020954516 22.921406692867844 0 0 0
1512 471 3 0.41 25.96585536288907 27.494040087587027 22.339686559472288 0 0 0
1513 471 3 0.41 26.181196725585213 25.875800278368665 22.44533953946742 0 0 0
1755 552 3 0.41 25.58155979460779 25.877783506275613 25.98466624336434 0 0 0
1756 552 3 0.41 26.172103407976152 26.02704392344877 24.49604895489112 0 0 0
1514 472 2 -0.82 0.17254323159207252 2.168306720683728 26.41785113535039 0 0 0
1515 472 3 0.41 0.4222526960490724 2.993455077425293 25.867101940734617 0 0 0
1516 472 3 0.41 0.5142302990915223 2.3517958068449833 27.33991385190026 0 0 0
1517 473 2 -0.82 5.825387227710062 1.018193673904938 25.540962376284337 0 0 0
1518 473 3 0.41 5.862762822098515 1.9812856436623425 25.867565571158547 0 0 0
1541 481 2 -0.82 1.022263131766043 4.453063576654817 25.195921824114112 0 0 0
1544 482 2 -0.82 6.000385389860149 3.7244806961872015 26.164017606772436 0 0 0
1520 474 2 -0.82 8.011007852548097 29.466099861991722 25.793254089697438 0 -1 0
1521 474 3 0.41 8.751198961310832 0.1758110735262612 25.848883122747623 0 0 0
1522 474 3 0.41 7.150723502470686 0.02490412006762657 25.748246575014367 0 0 0
1523 475 2 -0.82 9.883165730902066 1.4123921086816693 25.873939217621174 0 0 0
1524 475 3 0.41 10.060430400313557 2.1759042588435027 26.50342802608786 0 0 0
1547 483 2 -0.82 8.336899980741897 4.999692855631711 25.8065961496855 0 0 0
1550 484 2 -0.82 11.059713057687041 4.374351580216362 25.819310939708032 0 0 0
1551 484 3 0.41 11.413405056730262 5.2493141688394935 25.423656674308997 0 0 0
1526 476 2 -0.82 14.878945899107016 1.3260249425794706 25.011050283137692 0 0 0
1527 476 3 0.41 15.894694113273474 1.308139053136152 25.136965723550922 0 0 0
1528 476 3 0.41 14.548413461874643 2.121003732645273 25.561404981805747 0 0 0
1529 477 2 -0.82 17.609802208584405 1.355486723553963 24.964101468087094 0 0 0
1553 485 2 -0.82 13.854429195738732 3.69466487116318 26.027217456902846 0 0 0
1554 485 3 0.41 14.191373944768396 4.600762916034624 25.756141153668995 0 0 0
1555 485 3 0.41 12.882628653841667 3.8187177344823597 26.279949681650375 0 0 0
1556 486 2 -0.82 17.380799757736405 6.196724411832811 25.45957559164179 0 0 0
1558 486 3 0.41 17.74627297258277 7.147783055365238 25.388487239751566 0 0 0
1530 477 3 0.41 18.522723675937954 1.5993864068442252 25.33303056193278 0 0 0
1532 478 2 -0.82 20.297053771016675 2.266426753598643 24.950891374481547 0 0 0
1534 478 3 0.41 21.132167201388555 1.7474878727111935 25.236453347651633 0 0 0
1537 479 3 0.41 23.16207100143908 1.3855963867642493 24.61889594468646 0 0 0
1557 486 3 0.41 16.89602372954086 6.1450530171274576 26.336785588740145 0 0 0
1559 487 2 -0.82 21.09705232345857 4.87317837572854 25.13987593685054 0 0 0
1560 487 3 0.41 20.64707160349039 5.333760536114504 25.913503563777567 0 0 0
1561 487 3 0.41 22.102890720339072 4.983799645765933 25.30802713420885 0 0 0
1563 488 3 0.41 23.85692903683738 6.423272225397638 25.81292541446328 0 0 0
1535 479 2 -0.82 22.80319859160028 1.34132379673804 25.571048458157108 0 0 0
1538 480 2 -0.82 25.208536613392848 1.9270518879469287 26.74900548479157 0 0 0
1562 488 2 -0.82 23.716556578258963 5.447305075839399 25.533892674205624 0 0 0
1565 489 2 -0.82 26.286590788236886 4.254537664452718 25.72769402548609 0 0 0
1568 490 2 -0.82 1.1936311138797655 7.177019347349939 25.766058641369707 0 0 0
1570 490 3 0.41 1.3214322752011145 8.085708287735322 26.209673662814808 0 0 0
1571 491 2 -0.82 5.109241431195995 8.86156112244039 24.764788865411926 0 0 0
1573 491 3 0.41 6.085359096602358 9.035076022378957 24.997751717464304 0 0 0
1595 499 2 -0.82 1.9841471347838102 9.696982493212422 26.605189059726733 0 0 0
1596 499 3 0.41 2.614727912625574 10.233633380570318 26.008334819010194 0 0 0
1597 499 3 0.41 2.2435625532757286 9.910604987884462 27.551215128580754 0 0 0
1598 500 2 -0.82 3.728701550976684 11.24507457855527 25.093768028137074 0 0 0
1574 492 2 -0.82 7.8230703454820185 9.26059736130425 25.311789185696288 0 0 0
1577 493 2 -0.82 12.042245185876236 6.581701534107987 24.5566131891479 0 0 0
1579 493 3 0.41 12.840857296300705 7.079482619527268 24.965341401621117 0 0 0
1601 501 2 -0.82 8.707019640459563 11.902050669252606 25.360183263051894 0 0 0
1604 502 2 -0.82 11.385326615363299 12.350451015960608 25.913902300443944 0 0 0
1580 494 2 -0.82 14.045526111111656 8.258913429879334 25.34149743889633 0 0 0
1581 494 3 0.41 14.852492183762555 8.488211296866721 24.76808529477951 0 0 0
1583 495 2 -0.82 18.38944008094709 8.716314702071768 25.137311234941986 0 0 0
1585 495 3 0.41 18.215379537251717 9.715582748103534 25.259436132177548 0 0 0
1607 503 2 -0.82 13.41902749645078 10.629768727449582 26.59325711004799 0 0 0
1608 503 3 0.41 13.93796951928728 11.005193503434187 27.365731287118656 0 0 0
1609 503 3 0.41 12.633822759291581 11.26266968869752 26.443615361610657 0 0 0
1610 504 2 -0.82 18.066348166455644 11.471413121443982 25.175091253214 0 0 0
1584 495 3 0.41 19.399846397552075 8.615726698625933 25.207237936515458 0 0 0
1586 496 2 -0.82 21.21980853888333 8.703273653337511 25.336578119299975 0 0 0
1587 496 3 0.41 21.136754433761844 9.677481723823446 25.635561329482073 0 0 0
1591 497 3 0.41 23.94081145974265 9.106226446827021 25.979686659646845 0 0 0
1613 505 2 -0.82 20.618183092320194 11.298950808452163 25.975111833228265 0 0 0
1589 497 2 -0.82 24.11788892594714 8.097481443100634 25.914799333509595 0 0 0
1592 498 2 -0.82 26.845863208610236 8.633945320646262 25.61211924354222 0 0 0
1593 498 3 0.41 27.639308358717486 8.396173896824662 26.184265858352884 0 0 0
1594 498 3 0.41 26.75838650037303 9.654132069817194 25.660543102634314 0 0 0
1616 506 2 -0.82 23.909441196180023 10.744990198400359 25.863977302903013 0 0 0
1618 506 3 0.41 24.876930225378583 11.057725011343043 25.80071193984217 0 0 0
1619 507 2 -0.82 26.544626699800716 11.328525428028998 25.404939786634817 0 0 0
1621 507 3 0.41 26.886835422687707 12.184448997368454 25.853087659481282 0 0 0
1622 508 2 -0.82 3.314792086886786 15.92216953159964 26.836342144699962 0 0 0
1624 508 3 0.41 3.289103241920872 16.186710637776365 27.804882864718518 0 0 0
1625 509 2 -0.82 4.459766874934548 13.853554369366805 25.553629121001745 0 0 0
1626 509 3 0.41 5.468023207706877 13.952617785491908 25.701407065907336 0 0 0
1649 517 2 -0.82 2.4738630426304815 18.164595451040753 25.461655911055065 0 0 0
1652 518 2 -0.82 5.137839792593778 18.648154396347937 26.071849829238047 0 0 0
1602 501 3 0.41 7.994493456812222 12.591334333680114 25.60182187507137 0 0 0
1628 510 2 -0.82 7.15944850809143 14.23893644985141 25.65953148681343 0 0 0
1631 511 2 -0.82 11.815663838789488 15.170607178311881 25.846771389646612 0 0 0
1632 511 3 0.41 11.32826408740637 16.048350090263263 26.038236592874956 0 0 0
1633 511 3 0.41 12.711552156955678 15.243951721985352 26.314344354619866 0 0 0
1655 519 2 -0.82 7.757063902771008 18.11254049950001 26.00139589422997 0 0 0
1658 520 2 -0.82 10.464872881053891 17.633519485911595 26.028890310532056 0 0 0
1659 520 3 0.41 9.447588466718631 17.66080371121944 26.12568861493611 0 0 0
1611 504 3 0.41 17.789040601998618 12.370650871761551 25.57368252917663 0 0 0
1634 512 2 -0.82 14.858286924071983 15.275132882040634 26.12145159370497 0 0 0
1636 512 3 0.41 14.835119740779223 16.290485901779068 26.20082583193151 0 0 0
1637 513 2 -0.82 17.518490757837345 14.086992048064737 25.83784544900909 0 0 0
1661 521 2 -0.82 14.639382443828088 18.046323636704642 26.071528092788714 0 0 0
1664 522 2 -0.82 17.063331448429633 19.003067250143577 25.58129330054497 0 0 0
1640 514 2 -0.82 19.835219481005897 15.49853436548378 26.049382773520836 0 0 0
1641 514 3 0.41 19.945847619522606 15.953826617971744 25.151315822907847 0 0 0
1667 523 2 -0.82 20.97695763525517 18.685735111415195 25.463009771647 0 0 0
1669 523 3 0.41 20.442396811112516 18.469670999229898 26.28894800277724 0 0 0
1643 515 2 -0.82 22.4916511641167 15.785479471826097 26.7036761236289 0 0 0
1645 515 3 0.41 23.189939531115037 15.088858111511103 26.8818406125144 0 0 0
1646 516 2 -0.82 27.49847704753288 13.772207411435087 26.03328874672405 0 0 0
1670 524 2 -0.82 23.710820170504558 18.213126139562583 26.068905134689427 0 0 0
1672 524 3 0.41 23.822011279028946 19.179711040366822 26.3681420330559 0 0 0
1673 525 2 -0.82 26.23462588706317 18.343645406154035 24.787447468728168 0 0 0
1650 517 3 0.41 2.2359503933342832 19.13290291637408 25.66857137466298 0 0 0
1676 526 2 -0.82 2.359568372404525 20.985103922941853 25.65647397199778 0 0 0
1679 527 2 -0.82 4.988203724205834 21.407180241476233 26.32993976783316 0 0 0
1680 527 3 0.41 5.834956236770974 21.4315099191199 26.88179569997527 0 0 0
1657 519 3 0.41 6.737871438842644 18.14281927224928 26.133348900516427 0 0 0
1660 520 3 0.41 10.776506259040493 18.524685101739568 26.422856439537895 0 0 0
1682 528 2 -0.82 8.479765472939368 20.65663142944009 26.31430243203678 0 0 0
1685 529 2 -0.82 11.21762291210406 20.20419323882048 26.729138164520904 0 0 0
1686 529 3 0.41 11.308426692994448 20.72095350909438 27.587685099550935 0 0 0
1687 529 3 0.41 12.072175776953532 20.42312496748318 26.20611055529134 0 0 0
1714 538 3 0.41 12.869816750280897 23.593626356220756 26.41893256044957 0 0 0
1663 521 3 0.41 15.61069431450183 18.380483504184774 25.993621856938613 0 0 0
1688 530 2 -0.82 13.626762493754308 20.7484205000839 25.59768908497163 0 0 0
1691 531 2 -0.82 18.65387685599667 21.21369945715672 25.46421125919258 0 0 0
1717 539 3 0.41 15.12414666130946 23.023143558256113 27.331403966737273 0 0 0
1668 523 3 0.41 21.089266630517383 19.69682786913458 25.453337047116808 0 0 0
1671 524 3 0.41 22.88192617687035 18.234633387999423 25.4840420790024 0 0 0
1694 532 2 -0.82 21.443137879591237 21.40439393037532 25.495810417060454 0 0 0
1699 533 3 0.41 24.002890171822767 21.95003459969738 26.553726217260365 0 0 0
1675 525 3 0.41 26.52077108563544 19.098586907326435 25.408712519670555 0 0 0
1697 533 2 -0.82 24.043692815157865 20.93747927553267 26.41196608169271 0 0 0
1698 533 3 0.41 25.046836651755033 20.752769539684287 26.37723191443497 0 0 0
1700 534 2 -0.82 26.75369076238029 20.573729913623946 26.37228504845424 0 0 0
1702 534 3 0.41 27.275513091954565 20.418713621995387 27.21618669702044 0 0 0
1728 543 3 0.41 28.404203899086475 23.488391140151684 26.164728880176984 0 0 0
1703 535 2 -0.82 2.2156760035553225 23.798937530128057 25.537035631039647 0 0 0
1705 535 3 0.41 3.2349992913317713 23.8573724847635 25.515719789707763 0 0 0
1706 536 2 -0.82 4.949414310381629 23.91058901642964 25.169159819521226 0 0 0
1730 544 2 -0.82 0.6097112880255059 28.555735826743543 24.78140983373063 0 0 0
1731 544 3 0.41 29.66282626910094 28.258504861619258 24.935988163812727 -1 0 0
1732 544 3 0.41 0.717024208022094 29.43596354449638 25.260545618351056 0 0 0
1733 545 2 -0.82 5.596872797521861 26.361214133670533 25.90293710204639 0 0 0
1734 545 3 0.41 5.314649809376923 27.24461106468296 25.514288222328148 0 0 0
1735 545 3 0.41 6.473276699983035 26.566816680193014 26.392168739675558 0 0 0
1709 537 2 -0.82 7.4857004100985245 23.211781359928388 26.393066587563567 0 0 0
1710 537 3 0.41 6.699534393489705 23.545502545372006 25.85072325482092 0 0 0
1712 538 2 -0.82 11.911077757825938 23.783377871795622 26.137432561493632 0 0 0
1713 538 3 0.41 11.761697335430927 24.77941354390778 26.275065017176875 0 0 0
1736 546 2 -0.82 7.886955981259214 27.11964065621731 27.125864930034354 0 0 0
1737 546 3 0.41 7.982396757021846 28.00491150602829 26.615108602031697 0 0 0
1738 546 3 0.41 8.112910248354337 27.32485964135026 28.081746719671926 0 0 0
1739 547 2 -0.82 11.688299775255594 26.55861701055232 25.917808237959687 0 0 0
1741 547 3 0.41 10.824366979477686 27.05414330955242 26.066435026774425 0 0 0
1715 539 2 -0.82 14.578302133304721 23.225641644698463 26.511780193112944 0 0 0
1716 539 3 0.41 15.08952817984262 23.973509914737495 26.033595384601803 0 0 0
1718 540 2 -0.82 18.478561747533035 23.944523728981512 25.880711631156604 0 0 0
1742 548 2 -0.82 14.333622202455402 27.328183867904013 26.122210508379386 0 0 0
1745 549 2 -0.82 16.070315871912133 25.300597567443827 25.512230341507465 0 0 0
1747 549 3 0.41 15.48713972470797 26.1138803914086 25.715131920359383 0 0 0
1720 540 3 0.41 17.571282391757823 24.301277965931707 26.15635127806982 0 0 0
1721 541 2 -0.82 21.16129513018775 24.068627847958886 26.20997600640817 0 0 0
1746 549 3 0.41 16.720776319855336 25.60998659606389 24.791380877020572 0 0 0
1748 550 2 -0.82 21.63887153667481 26.808565925223668 25.929888847922154 0 0 0
1749 550 3 0.41 21.014868173422773 27.411096797624058 26.440173239883705 0 0 0
1724 542 2 -0.82 23.80314557748604 23.617888795736082 26.42059459891314 0 0 0
1726 542 3 0.41 24.15822288580062 24.521172718406056 26.725939918213353 0 0 0
1727 543 2 -0.82 27.531204291993948 23.130882402781893 25.828387174855866 0 0 0
1729 543 3 0.41 26.973847716046397 23.965636681151462 25.627075548157666 0 0 0
1751 551 2 -0.82 24.176878333560005 26.3165547322129 26.898181967814807 0 0 0
1753 551 3 0.41 24.27804804176897 26.939160355231902 27.68106671289881 0 0 0
1754 552 2 -0.82 26.315329846287856 25.5269800635876 25.371156876377288 0 0 0

Velocities

1 0 0 0
6 0 0 0
51 0 0 0
56 0 0 0
2 0 0 0
7 0 0 0
52 0 0 0
57 0 0 0
3 0 0 0
8 0 0 0
53 0 0 0
58 0 0 0
4 0 0 0
9 0 0 0
54 0 0 0
59 0 0 0
5 0 0 0
10 0 0 0
55 0 0 0
60 0 0 0
11 0 0 0
16 0 0 0
61 0 0 0
66 0 0 0
12 0 0 0
17 0 0 0
62 0 0 0
67 0 0 0
13 0 0 0
18 0 0 0
63 0 0 0
68 0 0 0
14 0 0 0
19 0 0 0
64 0 0 0
69 0 0 0
15 0 0 0
20 0 0 0
65 0 0 0
70 0 0 0
21 0 0 0
26 0 0 0
71 0 0 0
76 0 0 0
22 0 0 0
27 0 0 0
72 0 0 0
77 0 0 0
23 0 0 0
28 0 0 0
73 0 0 0
78 0 0 0
24 0 0 0
29 0 0 0
74 0 0 0
79 0 0 0
25 0 0 0
30 0 0 0
75 0 0 0
80 0 0 0
31 0 0 0
36 0 0 0
81 0 0 0
86 0 0 0
32 0 0 0
37 0 0 0
82 0 0 0
87 0 0 0
33 0 0 0
38 0 0 0
83 0 0 0
88 0 0 0
34 0 0 0
39 0 0 0
84 0 0 0
89 0 0 0
35 0 0 0
40 0 0 0
85 0 0 0
90 0 0 0
41 0 0 0
46 0 0 0
91 0 0 0
96 0 0 0
42 0 0 0
47 0 0 0
92 0 0 0
97 0 0 0
43 0 0 0
48 0 0 0
93 0 0 0
98 0 0 0
44 0 0 0
49 0 0 0
94 0 0 0
99 0 0 0
45 0 0 0
50 0 0 0
95 0 0 0
100 0 0 0
101 0 0 0
102 0 0 0
103 0 0 0
104 0 0 0
105 0 0 0
106 0 0 0
128 0 0 0
129 0 0 0
130 0 0 0
131 0 0 0
132 0 0 0
133 0 0 0
107 0 0 0
108 0 0 0
109 0 0 0
110 0 0 0
111 0 0 0
112 0 0 0
134 0 0 0
135 0 0 0
136 0 0 0
137 0 0 0
138 0 0 0
139 0 0 0
352 0 0 0
378 0 0 0
113 0 0 0
114 0 0 0
115 0 0 0
116 0 0 0
117 0 0 0
118 0 0 0
140 0 0 0
141 0 0 0
142 0 0 0
143 0 0 0
145 0 0 0
382 0 0 0
119 0 0 0
120 0 0 0
121 0 0 0
123 0 0 0
144 0 0 0
146 0 0 0
147 0 0 0
148 0 0 0
150 0 0 0
360 0 0 0
122 0 0 0
124 0 0 0
125 0 0 0
126 0 0 0
127 0 0 0
149 0 0 0
151 0 0 0
152 0 0 0
153 0 0 0
154 0 0 0
155 0 0 0
156 0 0 0
157 0 0 0
158 0 0 0
159 0 0 0
160 0 0 0
182 0 0 0
183 0 0 0
184 0 0 0
185 0 0 0
186 0 0 0
421 0 0 0
161 0 0 0
162 0 0 0
163 0 0 0
164 0 0 0
165 0 0 0
166 0 0 0
188 0 0 0
189 0 0 0
190 0 0 0
396 0 0 0
1757 0 0 0
167 0 0 0
168 0 0 0
169 0 0 0
170 0 0 0
172 0 0 0
191 0 0 0
192 0 0 0
193 0 0 0
194 0 0 0
196 0 0 0
171 0 0 0
173 0 0 0
174 0 0 0
175 0 0 0
177 0 0 0
197 0 0 0
199 0 0 0
176 0 0 0
178 0 0 0
179 0 0 0
180 0 0 0
181 0 0 0
200 0 0 0
202 0 0 0
203 0 0 0
204 0 0 0
187 0 0 0
206 0 0 0
207 0 0 0
208 0 0 0
209 0 0 0
210 0 0 0
211 0 0 0
233 0 0 0
234 0 0 0
236 0 0 0
237 0 0 0
445 0 0 0
447 0 0 0
212 0 0 0
213 0 0 0
214 0 0 0
215 0 0 0
216 0 0 0
217 0 0 0
239 0 0 0
242 0 0 0
218 0 0 0
219 0 0 0
220 0 0 0
221 0 0 0
222 0 0 0
245 0 0 0
246 0 0 0
247 0 0 0
248 0 0 0
195 0 0 0
198 0 0 0
201 0 0 0
223 0 0 0
224 0 0 0
225 0 0 0
226 0 0 0
229 0 0 0
251 0 0 0
255 0 0 0
463 0 0 0
465 0 0 0
484 0 0 0
205 0 0 0
227 0 0 0
228 0 0 0
230 0 0 0
231 0 0 0
232 0 0 0
254 0 0 0
257 0 0 0
235 0 0 0
238 0 0 0
260 0 0 0
261 0 0 0
262 0 0 0
263 0 0 0
264 0 0 0
265 0 0 0
292 0 0 0
495 0 0 0
240 0 0 0
241 0 0 0
244 0 0 0
266 0 0 0
267 0 0 0
268 0 0 0
269 0 0 0
270 0 0 0
271 0 0 0
295 0 0 0
298 0 0 0
502 0 0 0
243 0 0 0
250 0 0 0
272 0 0 0
273 0 0 0
274 0 0 0
275 0 0 0
276 0 0 0
510 0 0 0
249 0 0 0
252 0 0 0
253 0 0 0
277 0 0 0
278 0 0 0
279 0 0 0
280 0 0 0
283 0 0 0
306 0 0 0
513 0 0 0
256 0 0 0
258 0 0 0
259 0 0 0
281 0 0 0
282 0 0 0
284 0 0 0
285 0 0 0
286 0 0 0
312 0 0 0
544 0 0 0
287 0 0 0
288 0 0 0
289 0 0 0
290 0 0 0
291 0 0 0
314 0 0 0
315 0 0 0
316 0 0 0
317 0 0 0
318 0 0 0
319 0 0 0
293 0 0 0
294 0 0 0
296 0 0 0
297 0 0 0
320 0 0 0
321 0 0 0
322 0 0 0
323 0 0 0
325 0 0 0
525 0 0 0
552 0 0 0
556 0 0 0
299 0 0 0
300 0 0 0
301 0 0 0
302 0 0 0
304 0 0 0
324 0 0 0
326 0 0 0
327 0 0 0
328 0 0 0
329 0 0 0
331 0 0 0
303 0 0 0
305 0 0 0
307 0 0 0
309 0 0 0
330 0 0 0
332 0 0 0
333 0 0 0
334 0 0 0
337 0 0 0
308 0 0 0
310 0 0 0
311 0 0 0
313 0 0 0
335 0 0 0
336 0 0 0
338 0 0 0
339 0 0 0
340 0 0 0
341 0 0 0
342 0 0 0
343 0 0 0
344 0 0 0
345 0 0 0
346 0 0 0
368 0 0 0
369 0 0 0
370 0 0 0
371 0 0 0
372 0 0 0
373 0 0 0
572 0 0 0
573 0 0 0
574 0 0 0
575 0 0 0
576 0 0 0
577 0 0 0
599 0 0 0
600 0 0 0
601 0 0 0
602 0 0 0
603 0 0 0
604 0 0 0
347 0 0 0
348 0 0 0
349 0 0 0
350 0 0 0
351 0 0 0
374 0 0 0
375 0 0 0
376 0 0 0
377 0 0 0
379 0 0 0
578 0 0 0
579 0 0 0
580 0 0 0
581 0 0 0
582 0 0 0
583 0 0 0
605 0 0 0
606 0 0 0
607 0 0 0
608 0 0 0
609 0 0 0
610 0 0 0
353 0 0 0
354 0 0 0
355 0 0 0
356 0 0 0
357 0 0 0
380 0 0 0
381 0 0 0
383 0 0 0
384 0 0 0
584 0 0 0
585 0 0 0
586 0 0 0
587 0 0 0
589 0 0 0
611 0 0 0
612 0 0 0
613 0 0 0
614 0 0 0
616 0 0 0
358 0 0 0
359 0 0 0
361 0 0 0
364 0 0 0
385 0 0 0
386 0 0 0
387 0 0 0
388 0 0 0
588 0 0 0
590 0 0 0
591 0 0 0
592 0 0 0
594 0 0 0
615 0 0 0
617 0 0 0
618 0 0 0
619 0 0 0
622 0 0 0
362 0 0 0
363 0 0 0
365 0 0 0
366 0 0 0
367 0 0 0
389 0 0 0
390 0 0 0
391 0 0 0
593 0 0 0
595 0 0 0
596 0 0 0
597 0 0 0
598 0 0 0
620 0 0 0
621 0 0 0
623 0 0 0
624 0 0 0
625 0 0 0
1758 0 0 0
392 0 0 0
393 0 0 0
394 0 0 0
416 0 0 0
417 0 0 0
418 0 0 0
419 0 0 0
626 0 0 0
627 0 0 0
628 0 0 0
629 0 0 0
630 0 0 0
631 0 0 0
653 0 0 0
654 0 0 0
656 0 0 0
657 0 0 0
1759 0 0 0
395 0 0 0
397 0 0 0
398 0 0 0
399 0 0 0
422 0 0 0
423 0 0 0
424 0 0 0
425 0 0 0
426 0 0 0
427 0 0 0
632 0 0 0
633 0 0 0
634 0 0 0
635 0 0 0
636 0 0 0
637 0 0 0
659 0 0 0
660 0 0 0
661 0 0 0
662 0 0 0
663 0 0 0
664 0 0 0
400 0 0 0
401 0 0 0
402 0 0 0
403 0 0 0
404 0 0 0
405 0 0 0
428 0 0 0
429 0 0 0
430 0 0 0
431 0 0 0
432 0 0 0
638 0 0 0
639 0 0 0
640 0 0 0
641 0 0 0
642 0 0 0
665 0 0 0
666 0 0 0
667 0 0 0
668 0 0 0
670 0 0 0
406 0 0 0
407 0 0 0
408 0 0 0
409 0 0 0
411 0 0 0
433 0 0 0
434 0 0 0
435 0 0 0
436 0 0 0
439 0 0 0
643 0 0 0
644 0 0 0
645 0 0 0
646 0 0 0
648 0 0 0
669 0 0 0
671 0 0 0
672 0 0 0
673 0 0 0
675 0 0 0
410 0 0 0
412 0 0 0
413 0 0 0
414 0 0 0
415 0 0 0
437 0 0 0
438 0 0 0
440 0 0 0
441 0 0 0
442 0 0 0
647 0 0 0
649 0 0 0
650 0 0 0
651 0 0 0
652 0 0 0
674 0 0 0
676 0 0 0
677 0 0 0
678 0 0 0
679 0 0 0
420 0 0 0
443 0 0 0
444 0 0 0
446 0 0 0
448 0 0 0
467 0 0 0
470 0 0 0
471 0 0 0
472 0 0 0
655 0 0 0
658 0 0 0
680 0 0 0
681 0 0 0
682 0 0 0
701 0 0 0
703 0 0 0
704 0 0 0
1762 0 0 0
449 0 0 0
450 0 0 0
451 0 0 0
452 0 0 0
453 0 0 0
454 0 0 0
473 0 0 0
475 0 0 0
476 0 0 0
477 0 0 0
683 0 0 0
684 0 0 0
685 0 0 0
686 0 0 0
687 0 0 0
707 0 0 0
708 0 0 0
710 0 0 0
711 0 0 0
455 0 0 0
456 0 0 0
457 0 0 0
458 0 0 0
459 0 0 0
460 0 0 0
479 0 0 0
481 0 0 0
482 0 0 0
688 0 0 0
689 0 0 0
690 0 0 0
691 0 0 0
692 0 0 0
694 0 0 0
713 0 0 0
714 0 0 0
716 0 0 0
461 0 0 0
462 0 0 0
485 0 0 0
487 0 0 0
693 0 0 0
695 0 0 0
696 0 0 0
697 0 0 0
700 0 0 0
718 0 0 0
719 0 0 0
720 0 0 0
724 0 0 0
464 0 0 0
466 0 0 0
488 0 0 0
490 0 0 0
491 0 0 0
492 0 0 0
698 0 0 0
699 0 0 0
722 0 0 0
725 0 0 0
1760 0 0 0
1763 0 0 0
468 0 0 0
469 0 0 0
494 0 0 0
496 0 0 0
497 0 0 0
498 0 0 0
499 0 0 0
702 0 0 0
705 0 0 0
706 0 0 0
728 0 0 0
729 0 0 0
730 0 0 0
731 0 0 0
732 0 0 0
733 0 0 0
474 0 0 0
478 0 0 0
500 0 0 0
501 0 0 0
503 0 0 0
504 0 0 0
505 0 0 0
709 0 0 0
712 0 0 0
734 0 0 0
735 0 0 0
736 0 0 0
737 0 0 0
738 0 0 0
739 0 0 0
480 0 0 0
483 0 0 0
506 0 0 0
507 0 0 0
508 0 0 0
509 0 0 0
511 0 0 0
532 0 0 0
715 0 0 0
717 0 0 0
740 0 0 0
741 0 0 0
742 0 0 0
743 0 0 0
744 0 0 0
486 0 0 0
489 0 0 0
512 0 0 0
514 0 0 0
516 0 0 0
534 0 0 0
721 0 0 0
745 0 0 0
746 0 0 0
747 0 0 0
748 0 0 0
750 0 0 0
493 0 0 0
515 0 0 0
517 0 0 0
723 0 0 0
726 0 0 0
727 0 0 0
749 0 0 0
751 0 0 0
752 0 0 0
753 0 0 0
754 0 0 0
1761 0 0 0
518 0 0 0
519 0 0 0
520 0 0 0
521 0 0 0
522 0 0 0
523 0 0 0
545 0 0 0
546 0 0 0
547 0 0 0
548 0 0 0
549 0 0 0
550 0 0 0
755 0 0 0
756 0 0 0
757 0 0 0
758 0 0 0
759 0 0 0
760 0 0 0
779 0 0 0
780 0 0 0
781 0 0 0
782 0 0 0
783 0 0 0
784 0 0 0
524 0 0 0
526 0 0 0
527 0 0 0
528 0 0 0
529 0 0 0
551 0 0 0
553 0 0 0
554 0 0 0
555 0 0 0
761 0 0 0
762 0 0 0
763 0 0 0
764 0 0 0
765 0 0 0
766 0 0 0
785 0 0 0
786 0 0 0
787 0 0 0
788 0 0 0
789 0 0 0
790 0 0 0
530 0 0 0
531 0 0 0
533 0 0 0
535 0 0 0
557 0 0 0
558 0 0 0
559 0 0 0
560 0 0 0
561 0 0 0
767 0 0 0
768 0 0 0
769 0 0 0
770 0 0 0
772 0 0 0
791 0 0 0
792 0 0 0
793 0 0 0
794 0 0 0
796 0 0 0
536 0 0 0
537 0 0 0
538 0 0 0
541 0 0 0
562 0 0 0
563 0 0 0
564 0 0 0
565 0 0 0
568 0 0 0
771 0 0 0
773 0 0 0
774 0 0 0
775 0 0 0
795 0 0 0
797 0 0 0
798 0 0 0
799 0 0 0
801 0 0 0
539 0 0 0
540 0 0 0
542 0 0 0
543 0 0 0
566 0 0 0
567 0 0 0
569 0 0 0
570 0 0 0
571 0 0 0
776 0 0 0
777 0 0 0
778 0 0 0
800 0 0 0
802 0 0 0
803 0 0 0
804 0 0 0
805 0 0 0
1764 0 0 0
806 0 0 0
807 0 0 0
808 0 0 0
809 0 0 0
810 0 0 0
811 0 0 0
830 0 0 0
831 0 0 0
832 0 0 0
833 0 0 0
834 0 0 0
835 0 0 0
1043 0 0 0
1044 0 0 0
1045 0 0 0
1046 0 0 0
1047 0 0 0
1048 0 0 0
1070 0 0 0
1071 0 0 0
1072 0 0 0
1073 0 0 0
1074 0 0 0
1075 0 0 0
812 0 0 0
813 0 0 0
814 0 0 0
815 0 0 0
816 0 0 0
817 0 0 0
836 0 0 0
837 0 0 0
838 0 0 0
839 0 0 0
840 0 0 0
841 0 0 0
1049 0 0 0
1050 0 0 0
1051 0 0 0
1052 0 0 0
1053 0 0 0
1054 0 0 0
1076 0 0 0
1077 0 0 0
1078 0 0 0
1079 0 0 0
1081 0 0 0
818 0 0 0
819 0 0 0
820 0 0 0
821 0 0 0
822 0 0 0
842 0 0 0
843 0 0 0
844 0 0 0
845 0 0 0
846 0 0 0
847 0 0 0
1055 0 0 0
1056 0 0 0
1057 0 0 0
1058 0 0 0
1060 0 0 0
1080 0 0 0
1082 0 0 0
1083 0 0 0
1084 0 0 0
1767 0 0 0
823 0 0 0
825 0 0 0
848 0 0 0
849 0 0 0
850 0 0 0
853 0 0 0
1059 0 0 0
1061 0 0 0
1062 0 0 0
1063 0 0 0
1066 0 0 0
1085 0 0 0
1086 0 0 0
1087 0 0 0
1089 0 0 0
1765 0 0 0
824 0 0 0
826 0 0 0
827 0 0 0
828 0 0 0
829 0 0 0
851 0 0 0
852 0 0 0
854 0 0 0
855 0 0 0
856 0 0 0
1064 0 0 0
1065 0 0 0
1067 0 0 0
1068 0 0 0
1088 0 0 0
1090 0 0 0
1091 0 0 0
1092 0 0 0
1093 0 0 0
857 0 0 0
858 0 0 0
859 0 0 0
860 0 0 0
861 0 0 0
862 0 0 0
884 0 0 0
885 0 0 0
886 0 0 0
887 0 0 0
888 0 0 0
889 0 0 0
1094 0 0 0
1095 0 0 0
1096 0 0 0
1097 0 0 0
1098 0 0 0
1099 0 0 0
1121 0 0 0
1122 0 0 0
1124 0 0 0
1126 0 0 0
863 0 0 0
864 0 0 0
865 0 0 0
866 0 0 0
868 0 0 0
890 0 0 0
891 0 0 0
893 0 0 0
894 0 0 0
895 0 0 0
1100 0 0 0
1102 0 0 0
1103 0 0 0
1104 0 0 0
1105 0 0 0
1127 0 0 0
1128 0 0 0
1130 0 0 0
1132 0 0 0
867 0 0 0
869 0 0 0
870 0 0 0
871 0 0 0
872 0 0 0
873 0 0 0
896 0 0 0
897 0 0 0
899 0 0 0
901 0 0 0
1106 0 0 0
1107 0 0 0
1108 0 0 0
1109 0 0 0
1110 0 0 0
1133 0 0 0
1136 0 0 0
1138 0 0 0
874 0 0 0
875 0 0 0
876 0 0 0
877 0 0 0
880 0 0 0
902 0 0 0
903 0 0 0
904 0 0 0
907 0 0 0
1112 0 0 0
1113 0 0 0
1114 0 0 0
1116 0 0 0
1137 0 0 0
1139 0 0 0
1140 0 0 0
1141 0 0 0
1144 0 0 0
878 0 0 0
879 0 0 0
881 0 0 0
882 0 0 0
883 0 0 0
905 0 0 0
906 0 0 0
908 0 0 0
909 0 0 0
910 0 0 0
1115 0 0 0
1117 0 0 0
1118 0 0 0
1119 0 0 0
1120 0 0 0
1142 0 0 0
1143 0 0 0
1145 0 0 0
1147 0 0 0
911 0 0 0
912 0 0 0
913 0 0 0
914 0 0 0
915 0 0 0
916 0 0 0
938 0 0 0
941 0 0 0
942 0 0 0
1123 0 0 0
1125 0 0 0
1148 0 0 0
1149 0 0 0
1150 0 0 0
1151 0 0 0
1152 0 0 0
1175 0 0 0
1177 0 0 0
1178 0 0 0
892 0 0 0
917 0 0 0
918 0 0 0
919 0 0 0
920 0 0 0
921 0 0 0
922 0 0 0
944 0 0 0
945 0 0 0
947 0 0 0
948 0 0 0
1131 0 0 0
1154 0 0 0
1155 0 0 0
1156 0 0 0
1157 0 0 0
1158 0 0 0
1159 0 0 0
1181 0 0 0
1184 0 0 0
1185 0 0 0
898 0 0 0
900 0 0 0
923 0 0 0
924 0 0 0
925 0 0 0
926 0 0 0
927 0 0 0
950 0 0 0
951 0 0 0
953 0 0 0
1134 0 0 0
1160 0 0 0
1161 0 0 0
1162 0 0 0
1163 0 0 0
1164 0 0 0
1187 0 0 0
1190 0 0 0
928 0 0 0
929 0 0 0
930 0 0 0
931 0 0 0
933 0 0 0
956 0 0 0
958 0 0 0
1165 0 0 0
1166 0 0 0
1167 0 0 0
1168 0 0 0
1170 0 0 0
1192 0 0 0
1768 0 0 0
932 0 0 0
934 0 0 0
935 0 0 0
936 0 0 0
937 0 0 0
959 0 0 0
960 0 0 0
962 0 0 0
963 0 0 0
1146 0 0 0
1169 0 0 0
1171 0 0 0
1172 0 0 0
1173 0 0 0
1174 0 0 0
1193 0 0 0
1196 0 0 0
939 0 0 0
940 0 0 0
943 0 0 0
965 0 0 0
966 0 0 0
967 0 0 0
968 0 0 0
969 0 0 0
970 0 0 0
1176 0 0 0
1179 0 0 0
1199 0 0 0
1200 0 0 0
1201 0 0 0
1202 0 0 0
1203 0 0 0
1204 0 0 0
1227 0 0 0
946 0 0 0
949 0 0 0
971 0 0 0
972 0 0 0
973 0 0 0
974 0 0 0
975 0 0 0
976 0 0 0
1002 0 0 0
1183 0 0 0
1186 0 0 0
1205 0 0 0
1206 0 0 0
1208 0 0 0
1209 0 0 0
1210 0 0 0
952 0 0 0
954 0 0 0
977 0 0 0
978 0 0 0
979 0 0 0
980 0 0 0
981 0 0 0
982 0 0 0
1006 0 0 0
1188 0 0 0
1191 0 0 0
1211 0 0 0
1212 0 0 0
1213 0 0 0
1214 0 0 0
1215 0 0 0
955 0 0 0
957 0 0 0
961 0 0 0
983 0 0 0
984 0 0 0
985 0 0 0
988 0 0 0
1012 0 0 0
1194 0 0 0
1216 0 0 0
1217 0 0 0
1218 0 0 0
1219 0 0 0
1221 0 0 0
964 0 0 0
986 0 0 0
987 0 0 0
989 0 0 0
990 0 0 0
991 0 0 0
1195 0 0 0
1197 0 0 0
1198 0 0 0
1220 0 0 0
1222 0 0 0
1223 0 0 0
1225 0 0 0
992 0 0 0
993 0 0 0
994 0 0 0
995 0 0 0
996 0 0 0
997 0 0 0
1016 0 0 0
1017 0 0 0
1018 0 0 0
1019 0 0 0
1020 0 0 0
1021 0 0 0
1226 0 0 0
1228 0 0 0
1229 0 0 0
1230 0 0 0
1231 0 0 0
1253 0 0 0
1254 0 0 0
1256 0 0 0
1258 0 0 0
998 0 0 0
999 0 0 0
1000 0 0 0
1001 0 0 0
1003 0 0 0
1022 0 0 0
1023 0 0 0
1024 0 0 0
1025 0 0 0
1026 0 0 0
1027 0 0 0
1232 0 0 0
1233 0 0 0
1234 0 0 0
1235 0 0 0
1236 0 0 0
1237 0 0 0
1259 0 0 0
1260 0 0 0
1261 0 0 0
1262 0 0 0
1263 0 0 0
1004 0 0 0
1005 0 0 0
1028 0 0 0
1029 0 0 0
1030 0 0 0
1031 0 0 0
1033 0 0 0
1238 0 0 0
1239 0 0 0
1241 0 0 0
1243 0 0 0
1264 0 0 0
1265 0 0 0
1266 0 0 0
1267 0 0 0
1268 0 0 0
1269 0 0 0
1766 0 0 0
1007 0 0 0
1008 0 0 0
1009 0 0 0
1032 0 0 0
1034 0 0 0
1035 0 0 0
1036 0 0 0
1039 0 0 0
1244 0 0 0
1245 0 0 0
1246 0 0 0
1248 0 0 0
1270 0 0 0
1271 0 0 0
1272 0 0 0
1273 0 0 0
1275 0 0 0
1010 0 0 0
1011 0 0 0
1013 0 0 0
1014 0 0 0
1015 0 0 0
1037 0 0 0
1038 0 0 0
1040 0 0 0
1041 0 0 0
1042 0 0 0
1247 0 0 0
1249 0 0 0
1250 0 0 0
1251 0 0 0
1252 0 0 0
1274 0 0 0
1276 0 0 0
1277 0 0 0
1278 0 0 0
1279 0 0 0
1280 0 0 0
1281 0 0 0
1282 0 0 0
1283 0 0 0
1284 0 0 0
1285 0 0 0
1301 0 0 0
1302 0 0 0
1303 0 0 0
1304 0 0 0
1305 0 0 0
1306 0 0 0
1519 0 0 0
1542 0 0 0
1543 0 0 0
1545 0 0 0
1546 0 0 0
1286 0 0 0
1287 0 0 0
1288 0 0 0
1307 0 0 0
1308 0 0 0
1309 0 0 0
1310 0 0 0
1311 0 0 0
1312 0 0 0
1525 0 0 0
1548 0 0 0
1549 0 0 0
1552 0 0 0
1769 0 0 0
1289 0 0 0
1290 0 0 0
1291 0 0 0
1292 0 0 0
1293 0 0 0
1294 0 0 0
1313 0 0 0
1314 0 0 0
1315 0 0 0
1316 0 0 0
1317 0 0 0
1531 0 0 0
1297 0 0 0
1318 0 0 0
1319 0 0 0
1320 0 0 0
1321 0 0 0
1323 0 0 0
1533 0 0 0
1770 0 0 0
1069 0 0 0
1295 0 0 0
1296 0 0 0
1298 0 0 0
1299 0 0 0
1300 0 0 0
1322 0 0 0
1324 0 0 0
1325 0 0 0
1326 0 0 0
1327 0 0 0
1536 0 0 0
1539 0 0 0
1540 0 0 0
1564 0 0 0
1566 0 0 0
1567 0 0 0
1328 0 0 0
1329 0 0 0
1330 0 0 0
1331 0 0 0
1332 0 0 0
1333 0 0 0
1355 0 0 0
1356 0 0 0
1357 0 0 0
1358 0 0 0
1360 0 0 0
1569 0 0 0
1572 0 0 0
1600 0 0 0
1101 0 0 0
1129 0 0 0
1334 0 0 0
1335 0 0 0
1336 0 0 0
1337 0 0 0
1338 0 0 0
1339 0 0 0
1361 0 0 0
1362 0 0 0
1363 0 0 0
1364 0 0 0
1365 0 0 0
1366 0 0 0
1575 0 0 0
1576 0 0 0
1578 0 0 0
1603 0 0 0
1605 0 0 0
1606 0 0 0
1111 0 0 0
1135 0 0 0
1340 0 0 0
1341 0 0 0
1342 0 0 0
1343 0 0 0
1344 0 0 0
1345 0 0 0
1367 0 0 0
1369 0 0 0
1370 0 0 0
1372 0 0 0
1582 0 0 0
1612 0 0 0
1346 0 0 0
1347 0 0 0
1348 0 0 0
1351 0 0 0
1371 0 0 0
1373 0 0 0
1374 0 0 0
1378 0 0 0
1588 0 0 0
1615 0 0 0
1617 0 0 0
1349 0 0 0
1350 0 0 0
1352 0 0 0
1353 0 0 0
1354 0 0 0
1376 0 0 0
1377 0 0 0
1379 0 0 0
1381 0 0 0
1590 0 0 0
1620 0 0 0
1153 0 0 0
1180 0 0 0
1359 0 0 0
1382 0 0 0
1383 0 0 0
1384 0 0 0
1385 0 0 0
1386 0 0 0
1387 0 0 0
1409 0 0 0
1412 0 0 0
1599 0 0 0
1623 0 0 0
1627 0 0 0
1654 0 0 0
1182 0 0 0
1388 0 0 0
1389 0 0 0
1390 0 0 0
1391 0 0 0
1392 0 0 0
1393 0 0 0
1415 0 0 0
1416 0 0 0
1418 0 0 0
1420 0 0 0
1629 0 0 0
1630 0 0 0
1368 0 0 0
1394 0 0 0
1395 0 0 0
1396 0 0 0
1397 0 0 0
1398 0 0 0
1399 0 0 0
1421 0 0 0
1424 0 0 0
1425 0 0 0
1635 0 0 0
1639 0 0 0
1665 0 0 0
1375 0 0 0
1400 0 0 0
1401 0 0 0
1402 0 0 0
1404 0 0 0
1426 0 0 0
1427 0 0 0
1428 0 0 0
1431 0 0 0
1614 0 0 0
1638 0 0 0
1642 0 0 0
1644 0 0 0
1380 0 0 0
1403 0 0 0
1405 0 0 0
1406 0 0 0
1407 0 0 0
1408 0 0 0
1430 0 0 0
1433 0 0 0
1435 0 0 0
1647 0 0 0
1648 0 0 0
1674 0 0 0
1410 0 0 0
1411 0 0 0
1413 0 0 0
1414 0 0 0
1436 0 0 0
1437 0 0 0
1438 0 0 0
1439 0 0 0
1440 0 0 0
1441 0 0 0
1467 0 0 0
1651 0 0 0
1653 0 0 0
1677 0 0 0
1678 0 0 0
1681 0 0 0
1708 0 0 0
1207 0 0 0
1417 0 0 0
1419 0 0 0
1442 0 0 0
1443 0 0 0
1444 0 0 0
1445 0 0 0
1446 0 0 0
1447 0 0 0
1474 0 0 0
1656 0 0 0
1683 0 0 0
1684 0 0 0
1189 0 0 0
1242 0 0 0
1422 0 0 0
1423 0 0 0
1448 0 0 0
1449 0 0 0
1450 0 0 0
1451 0 0 0
1452 0 0 0
1453 0 0 0
1477 0 0 0
1662 0 0 0
1689 0 0 0
1690 0 0 0
1693 0 0 0
1429 0 0 0
1454 0 0 0
1455 0 0 0
1456 0 0 0
1459 0 0 0
1666 0 0 0
1692 0 0 0
1695 0 0 0
1696 0 0 0
1725 0 0 0
1224 0 0 0
1432 0 0 0
1434 0 0 0
1457 0 0 0
1458 0 0 0
1460 0 0 0
1461 0 0 0
1462 0 0 0
1486 0 0 0
1701 0 0 0
1255 0 0 0
1257 0 0 0
1463 0 0 0
1464 0 0 0
1465 0 0 0
1466 0 0 0
1468 0 0 0
1490 0 0 0
1491 0 0 0
1492 0 0 0
1493 0 0 0
1494 0 0 0
1495 0 0 0
1704 0 0 0
1707 0 0 0
1469 0 0 0
1470 0 0 0
1471 0 0 0
1472 0 0 0
1473 0 0 0
1496 0 0 0
1497 0 0 0
1498 0 0 0
1499 0 0 0
1500 0 0 0
1501 0 0 0
1711 0 0 0
1740 0 0 0
1240 0 0 0
1475 0 0 0
1476 0 0 0
1478 0 0 0
1480 0 0 0
1502 0 0 0
1503 0 0 0
1504 0 0 0
1719 0 0 0
1743 0 0 0
1744 0 0 0
1771 0 0 0
1479 0 0 0
1481 0 0 0
1482 0 0 0
1483 0 0 0
1485 0 0 0
1505 0 0 0
1506 0 0 0
1507 0 0 0
1509 0 0 0
1722 0 0 0
1723 0 0 0
1750 0 0 0
1752 0 0 0
1484 0 0 0
1487 0 0 0
1488 0 0 0
1489 0 0 0
1508 0 0 0
1510 0 0 0
1511 0 0 0
1512 0 0 0
1513 0 0 0
1755 0 0 0
1756 0 0 0
1514 0 0 0
1515 0 0 0
1516 0 0 0
1517 0 0 0
1518 0 0 0
1541 0 0 0
1544 0 0 0
1520 0 0 0
1521 0 0 0
1522 0 0 0
1523 0 0 0
1524 0 0 0
1547 0 0 0
1550 0 0 0
1551 0 0 0
1526 0 0 0
1527 0 0 0
1528 0 0 0
1529 0 0 0
1553 0 0 0
1554 0 0 0
1555 0 0 0
1556 0 0 0
1558 0 0 0
1530 0 0 0
1532 0 0 0
1534 0 0 0
1537 0 0 0
1557 0 0 0
1559 0 0 0
1560 0 0 0
1561 0 0 0
1563 0 0 0
1535 0 0 0
1538 0 0 0
1562 0 0 0
1565 0 0 0
1568 0 0 0
1570 0 0 0
1571 0 0 0
1573 0 0 0
1595 0 0 0
1596 0 0 0
1597 0 0 0
1598 0 0 0
1574 0 0 0
1577 0 0 0
1579 0 0 0
1601 0 0 0
1604 0 0 0
1580 0 0 0
1581 0 0 0
1583 0 0 0
1585 0 0 0
1607 0 0 0
1608 0 0 0
1609 0 0 0
1610 0 0 0
1584 0 0 0
1586 0 0 0
1587 0 0 0
1591 0 0 0
1613 0 0 0
1589 0 0 0
1592 0 0 0
1593 0 0 0
1594 0 0 0
1616 0 0 0
1618 0 0 0
1619 0 0 0
1621 0 0 0
1622 0 0 0
1624 0 0 0
1625 0 0 0
1626 0 0 0
1649 0 0 0
1652 0 0 0
1602 0 0 0
1628 0 0 0
1631 0 0 0
1632 0 0 0
1633 0 0 0
1655 0 0 0
1658 0 0 0
1659 0 0 0
1611 0 0 0
1634 0 0 0
1636 0 0 0
1637 0 0 0
1661 0 0 0
1664 0 0 0
1640 0 0 0
1641 0 0 0
1667 0 0 0
1669 0 0 0
1643 0 0 0
1645 0 0 0
1646 0 0 0
1670 0 0 0
1672 0 0 0
1673 0 0 0
1650 0 0 0
1676 0 0 0
1679 0 0 0
1680 0 0 0
1657 0 0 0
1660 0 0 0
1682 0 0 0
1685 0 0 0
1686 0 0 0
1687 0 0 0
1714 0 0 0
1663 0 0 0
1688 0 0 0
1691 0 0 0
1717 0 0 0
1668 0 0 0
1671 0 0 0
1694 0 0 0
1699 0 0 0
1675 0 0 0
1697 0 0 0
1698 0 0 0
1700 0 0 0
1702 0 0 0
1728 0 0 0
1703 0 0 0
1705 0 0 0
1706 0 0 0
1730 0 0 0
1731 0 0 0
1732 0 0 0
1733 0 0 0
1734 0 0 0
1735 0 0 0
1709 0 0 0
1710 0 0 0
1712 0 0 0
1713 0 0 0
1736 0 0 0
1737 0 0 0
1738 0 0 0
1739 0 0 0
1741 0 0 0
1715 0 0 0
1716 0 0 0
1718 0 0 0
1742 0 0 0
1745 0 0 0
1747 0 0 0
1720 0 0 0
1721 0 0 0
1746 0 0 0
1748 0 0 0
1749 0 0 0
1724 0 0 0
1726 0 0 0
1727 0 0 0
1729 0 0 0
1751 0 0 0
1753 0 0 0
1754 0 0 0

Bonds

1 1 101 102
2 1 101 103
3 1 104 105
4 1 104 106
5 1 128 129
6 1 128 130
7 1 131 132
8 1 131 133
9 1 107 108
10 1 107 109
11 1 110 111
12 1 110 112
13 1 134 135
14 1 134 136
15 1 137 138
16 1 137 139
17 1 113 114
18 1 113 115
19 1 116 117
20 1 116 118
21 1 140 141
22 1 140 142
23 1 143 144
24 1 143 145
25 1 119 120
26 1 119 121
27 1 146 147
28 1 146 148
29 1 122 123
30 1 122 124
31 1 125 126
32 1 125 127
33 1 149 150
34 1 149 151
35 1 152 153
36 1 152 154
37 1 155 156
38 1 155 157
39 1 158 159
40 1 158 160
41 1 182 183
42 1 182 184
43 1 185 186
44 1 185 187
45 1 161 162
46 1 161 163
47 1 164 165
48 1 164 166
49 1 188 189
50 1 188 190
51 1 167 168
52 1 167 169
53 1 170 171
54 1 170 172
55 1 191 192
56 1 191 193
57 1 194 195
58 1 194 196
59 1 173 174
60 1 173 175
61 1 197 198
62 1 197 199
63 1 176 177
64 1 176 178
65 1 179 180
66 1 179 181
67 1 200 201
68 1 200 202
69 1 203 204
70 1 203 205
71 1 206 207
72 1 206 208
73 1 209 210
74 1 209 211
75 1 233 234
76 1 233 235
77 1 236 237
78 1 236 238
79 1 212 213
80 1 212 214
81 1 215 216
82 1 215 217
83 1 239 240
84 1 239 241
85 1 242 243
86 1 242 244
87 1 218 219
88 1 218 220
89 1 221 222
90 1 221 223
91 1 245 246
92 1 245 247
93 1 248 249
94 1 248 250
95 1 224 225
96 1 224 226
97 1 251 252
98 1 251 253
99 1 227 228
100 1 227 229
101 1 230 231
102 1 230 232
103 1 254 255
104 1 254 256
105 1 257 258
106 1 257 259
107 1 260 261
108 1 260 262
109 1 263 264
110 1 263 265
111 1 266 267
112 1 266 268
113 1 269 270
114 1 269 271
115 1 272 273
116 1 272 274
117 1 275 276
118 1 275 277
119 1 278 279
120 1 278 280
121 1 281 282
122 1 281 283
123 1 284 285
124 1 284 286
125 1 287 288
126 1 287 289
127 1 290 291
128 1 290 292
129 1 314 315
130 1 314 316
131 1 317 318
132 1 317 319
133 1 293 294
134 1 293 295
135 1 296 297
136 1 296 298
137 1 320 321
138 1 320 322
139 1 323 324
140 1 323 325
141 1 299 300
142 1 299 301
143 1 302 303
144 1 302 304
145 1 326 327
146 1 326 328
147 1 329 330
148 1 329 331
149 1 305 306
150 1 305 307
151 1 332 333
152 1 332 334
153 1 308 309
154 1 308 310
155 1 311 312
156 1 311 313
157 1 335 336
158 1 335 337
159 1 338 339
160 1 338 340
161 1 341 342
162 1 341 343
163 1 344 345
164 1 344 346
165 1 368 369
166 1 368 370
167 1 371 372
168 1 371 373
169 1 572 573
170 1 572 574
171 1 575 576
172 1 575 577
173 1 599 600
174 1 599 601
175 1 602 603
176 1 602 604
177 1 347 348
178 1 347 349
179 1 350 351
180 1 350 352
181 1 374 375
182 1 374 376
183 1 377 378
184 1 377 379
185 1 578 579
186 1 578 580
187 1 581 582
188 1 581 583
189 1 605 606
190 1 605 607
191 1 608 609
192 1 608 610
193 1 353 354
194 1 353 355
195 1 356 357
196 1 356 358
197 1 380 381
198 1 380 382
199 1 383 384
200 1 383 385
201 1 584 585
202 1 584 586
203 1 587 588
204 1 587 589
205 1 611 612
206 1 611 613
207 1 614 615
208 1 614 616
209 1 359 360
210 1 359 361
211 1 386 387
212 1 386 388
213 1 590 591
214 1 590 592
215 1 617 618
216 1 617 619
217 1 362 363
218 1 362 364
219 1 365 366
220 1 365 367
221 1 389 390
222 1 389 391
223 1 593 594
224 1 593 595
225 1 596 597
226 1 596 598
227 1 620 621
228 1 620 622
229 1 623 624
230 1 623 625
231 1 392 393
232 1 392 394
233 1 416 417
234 1 416 418
235 1 419 420
236 1 419 421
237 1 626 627
238 1 626 628
239 1 629 630
240 1 629 631
241 1 653 654
242 1 653 655
243 1 656 657
244 1 656 658
245 1 395 396
246 1 395 397
247 1 398 399
248 1 398 400
249 1 422 423
250 1 422 424
251 1 425 426
252 1 425 427
253 1 632 633
254 1 632 634
255 1 635 636
256 1 635 637
257 1 659 660
258 1 659 661
259 1 662 663
260 1 662 664
261 1 401 402
262 1 401 403
263 1 404 405
264 1 404 406
265 1 428 429
266 1 428 430
267 1 431 432
268 1 431 433
269 1 638 639
270 1 638 640
271 1 641 642
272 1 641 643
273 1 665 666
274 1 665 667
275 1 668 669
276 1 668 670
277 1 407 408
278 1 407 409
279 1 434 435
280 1 434 436
281 1 644 645
282 1 644 646
283 1 671 672
284 1 671 673
285 1 410 411
286 1 410 412
287 1 413 414
288 1 413 415
289 1 437 438
290 1 437 439
291 1 440 441
292 1 440 442
293 1 647 648
294 1 647 649
295 1 650 651
296 1 650 652
297 1 674 675
298 1 674 676
299 1 677 678
300 1 677 679
301 1 443 444
302 1 443 445
303 1 446 447
304 1 446 448
305 1 467 468
306 1 467 469
307 1 470 471
308 1 470 472
309 1 680 681
310 1 680 682
311 1 701 702
312 1 701 703
313 1 704 705
314 1 704 706
315 1 449 450
316 1 449 451
317 1 452 453
318 1 452 454
319 1 473 474
320 1 473 475
321 1 476 477
322 1 476 478
323 1 683 684
324 1 683 685
325 1 686 687
326 1 686 688
327 1 707 708
328 1 707 709
329 1 710 711
330 1 710 712
331 1 455 456
332 1 455 457
333 1 458 459
334 1 458 460
335 1 479 480
336 1 479 481
337 1 482 483
338 1 482 484
339 1 689 690
340 1 689 691
341 1 692 693
342 1 692 694
343 1 713 714
344 1 713 715
345 1 716 717
346 1 716 718
347 1 461 462
348 1 461 463
349 1 485 486
350 1 485 487
351 1 695 696
352 1 695 697
353 1 719 720
354 1 719 721
355 1 464 465
356 1 464 466
357 1 488 489
358 1 488 490
359 1 491 492
360 1 491 493
361 1 698 699
362 1 698 700
363 1 722 723
364 1 722 724
365 1 725 726
366 1 725 727
367 1 494 495
368 1 494 496
369 1 497 498
370 1 497 499
371 1 728 729
372 1 728 730
373 1 731 732
374 1 731 733
375 1 500 501
376 1 500 502
377 1 503 504
378 1 503 505
379 1 734 735
380 1 734 736
381 1 737 738
382 1 737 739
383 1 506 507
384 1 506 508
385 1 509 510
386 1 509 511
387 1 740 741
388 1 740 742
389 1 743 744
390 1 743 745
391 1 512 513
392 1 512 514
393 1 746 747
394 1 746 748
395 1 515 516
396 1 515 517
397 1 749 750
398 1 749 751
399 1 752 753
400 1 752 754
401 1 518 519
402 1 518 520
403 1 521 522
404 1 521 523
405 1 545 546
406 1 545 547
407 1 548 549
408 1 548 550
409 1 755 756
410 1 755 757
411 1 758 759
412 1 758 760
413 1 779 780
414 1 779 781
415 1 782 783
416 1 782 784
417 1 524 525
418 1 524 526
419 1 527 528
420 1 527 529
421 1 551 552
422 1 551 553
423 1 554 555
424 1 554 556
425 1 761 762
426 1 761 763
427 1 764 765
428 1 764 766
429 1 785 786
430 1 785 787
431 1 788 789
432 1 788 790
433 1 530 531
434 1 530 532
435 1 533 534
436 1 533 535
437 1 557 558
438 1 557 559
439 1 560 561
440 1 560 562
441 1 767 768
442 1 767 769
443 1 770 771
444 1 770 772
445 1 791 792
446 1 791 793
447 1 794 795
448 1 794 796
449 1 536 537
450 1 536 538
451 1 563 564
452 1 563 565
453 1 773 774
454 1 773 775
455 1 797 798
456 1 797 799
457 1 539 540
458 1 539 541
459 1 542 543
460 1 542 544
461 1 566 567
462 1 566 568
463 1 569 570
464 1 569 571
465 1 776 777
466 1 776 778
467 1 800 801
468 1 800 802
469 1 803 804
470 1 803 805
471 1 806 807
472 1 806 808
473 1 809 810
474 1 809 811
475 1 830 831
476 1 830 832
477 1 833 834
478 1 833 835
479 1 1043 1044
480 1 1043 1045
481 1 1046 1047
482 1 1046 1048
483 1 1070 1071
484 1 1070 1072
485 1 1073 1074
486 1 1073 1075
487 1 812 813
488 1 812 814
489 1 815 816
490 1 815 817
491 1 836 837
492 1 836 838
493 1 839 840
494 1 839 841
495 1 1049 1050
496 1 1049 1051
497 1 1052 1053
498 1 1052 1054
499 1 1076 1077
500 1 1076 1078
501 1 1079 1080
502 1 1079 1081
503 1 818 819
504 1 818 820
505 1 821 822
506 1 821 823
507 1 842 843
508 1 842 844
509 1 845 846
510 1 845 847
511 1 1055 1056
512 1 1055 1057
513 1 1058 1059
514 1 1058 1060
515 1 1082 1083
516 1 1082 1084
517 1 848 849
518 1 848 850
519 1 1061 1062
520 1 1061 1063
521 1 1085 1086
522 1 1085 1087
523 1 824 825
524 1 824 826
525 1 827 828
526 1 827 829
527 1 851 852
528 1 851 853
529 1 854 855
530 1 854 856
531 1 1064 1065
532 1 1064 1066
533 1 1067 1068
534 1 1067 1069
535 1 1088 1089
536 1 1088 1090
537 1 1091 1092
538 1 1091 1093
539 1 857 858
540 1 857 859
541 1 860 861
542 1 860 862
543 1 884 885
544 1 884 886
545 1 887 888
546 1 887 889
547 1 1094 1095
548 1 1094 1096
549 1 1097 1098
550 1 1097 1099
551 1 1121 1122
552 1 1121 1123
553 1 1124 1125
554 1 1124 1126
555 1 863 864
556 1 863 865
557 1 866 867
558 1 866 868
559 1 890 891
560 1 890 892
561 1 893 894
562 1 893 895
563 1 1100 1101
564 1 1100 1102
565 1 1103 1104
566 1 1103 1105
567 1 1127 1128
568 1 1127 1129
569 1 1130 1131
570 1 1130 1132
571 1 869 870
572 1 869 871
573 1 872 873
574 1 872 874
575 1 896 897
576 1 896 898
577 1 899 900
578 1 899 901
579 1 1106 1107
580 1 1106 1108
581 1 1109 1110
582 1 1109 1111
583 1 1133 1134
584 1 1133 1135
585 1 1136 1137
586 1 1136 1138
587 1 875 876
588 1 875 877
589 1 902 903
590 1 902 904
591 1 1112 1113
592 1 1112 1114
593 1 1139 1140
594 1 1139 1141
595 1 878 879
596 1 878 880
597 1 881 882
598 1 881 883
599 1 905 906
600 1 905 907
601 1 908 909
602 1 908 910
603 1 1115 1116
604 1 1115 1117
605 1 1118 1119
606 1 1118 1120
607 1 1142 1143
608 1 1142 1144
609 1 1145 1146
610 1 1145 1147
611 1 911 912
612 1 911 913
613 1 914 915
614 1 914 916
615 1 938 939
616 1 938 940
617 1 941 942
618 1 941 943
619 1 1148 1149
620 1 1148 1150
621 1 1151 1152
622 1 1151 1153
623 1 1175 1176
624 1 1175 1177
625 1 1178 1179
626 1 1178 1180
627 1 917 918
628 1 917 919
629 1 920 921
630 1 920 922
631 1 944 945
632 1 944 946
633 1 947 948
634 1 947 949
635 1 1154 1155
636 1 1154 1156
637 1 1157 1158
638 1 1157 1159
639 1 1181 1182
640 1 1181 1183
641 1 1184 1185
642 1 1184 1186
643 1 923 924
644 1 923 925
645 1 926 927
646 1 926 928
647 1 950 951
648 1 950 952
649 1 953 954
650 1 953 955
651 1 1160 1161
652 1 1160 1162
653 1 1163 1164
654 1 1163 1165
655 1 1187 1188
656 1 1187 1189
657 1 1190 1191
658 1 1190 1192
659 1 929 930
660 1 929 931
661 1 956 957
662 1 956 958
663 1 1166 1167
664 1 1166 1168
665 1 932 933
666 1 932 934
667 1 935 936
668 1 935 937
669 1 959 960
670 1 959 961
671 1 962 963
672 1 962 964
673 1 1169 1170
674 1 1169 1171
675 1 1172 1173
676 1 1172 1174
677 1 1193 1194
678 1 1193 1195
679 1 1196 1197
680 1 1196 1198
681 1 965 966
682 1 965 967
683 1 968 969
684 1 968 970
685 1 1199 1200
686 1 1199 1201
687 1 1202 1203
688 1 1202 1204
689 1 971 972
690 1 971 973
691 1 974 975
692 1 974 976
693 1 1205 1206
694 1 1205 1207
695 1 1208 1209
696 1 1208 1210
697 1 977 978
698 1 977 979
699 1 980 981
700 1 980 982
701 1 1211 1212
702 1 1211 1213
703 1 1214 1215
704 1 1214 1216
705 1 983 984
706 1 983 985
707 1 1217 1218
708 1 1217 1219
709 1 986 987
710 1 986 988
711 1 989 990
712 1 989 991
713 1 1220 1221
714 1 1220 1222
715 1 1223 1224
716 1 1223 1225
717 1 992 993
718 1 992 994
719 1 995 996
720 1 995 997
721 1 1016 1017
722 1 1016 1018
723 1 1019 1020
724 1 1019 1021
725 1 1226 1227
726 1 1226 1228
727 1 1229 1230
728 1 1229 1231
729 1 1253 1254
730 1 1253 1255
731 1 1256 1257
732 1 1256 1258
733 1 998 999
734 1 998 1000
735 1 1001 1002
736 1 1001 1003
737 1 1022 1023
738 1 1022 1024
739 1 1025 1026
740 1 1025 1027
741 1 1232 1233
742 1 1232 1234
743 1 1235 1236
744 1 1235 1237
745 1 1259 1260
746 1 1259 1261
747 1 1262 1263
748 1 1262 1264
749 1 1004 1005
750 1 1004 1006
751 1 1028 1029
752 1 1028 1030
753 1 1031 1032
754 1 1031 1033
755 1 1238 1239
756 1 1238 1240
757 1 1241 1242
758 1 1241 1243
759 1 1265 1266
760 1 1265 1267
761 1 1268 1269
762 1 1268 1270
763 1 1007 1008
764 1 1007 1009
765 1 1034 1035
766 1 1034 1036
767 1 1244 1245
768 1 1244 1246
769 1 1271 1272
770 1 1271 1273
771 1 1010 1011
772 1 1010 1012
773 1 1013 1014
774 1 1013 1015
775 1 1037 1038
776 1 1037 1039
777 1 1040 1041
778 1 1040 1042
779 1 1247 1248
780 1 1247 1249
781 1 1250 1251
782 1 1250 1252
783 1 1274 1275
784 1 1274 1276
785 1 1277 1278
786 1 1277 1279
787 1 1280 1281
788 1 1280 1282
789 1 1283 1284
790 1 1283 1285
791 1 1301 1302
792 1 1301 1303
793 1 1304 1305
794 1 1304 1306
795 1 1286 1287
796 1 1286 1288
797 1 1307 1308
798 1 1307 1309
799 1 1310 1311
800 1 1310 1312
801 1 1289 1290
802 1 1289 1291
803 1 1292 1293
804 1 1292 1294
805 1 1313 1314
806 1 1313 1315
807 1 1316 1317
808 1 1316 1318
809 1 1319 1320
810 1 1319 1321
811 1 1295 1296
812 1 1295 1297
813 1 1298 1299
814 1 1298 1300
815 1 1322 1323
816 1 1322 1324
817 1 1325 1326
818 1 1325 1327
819 1 1328 1329
820 1 1328 1330
821 1 1331 1332
822 1 1331 1333
823 1 1355 1356
824 1 1355 1357
825 1 1358 1359
826 1 1358 1360
827 1 1334 1335
828 1 1334 1336
829 1 1337 1338
830 1 1337 1339
831 1 1361 1362
832 1 1361 1363
833 1 1364 1365
834 1 1364 1366
835 1 1340 1341
836 1 1340 1342
837 1 1343 1344
838 1 1343 1345
839 1 1367 1368
840 1 1367 1369
841 1 1370 1371
842 1 1370 1372
843 1 1346 1347
844 1 1346 1348
845 1 1373 1374
846 1 1373 1375
847 1 1349 1350
848 1 1349 1351
849 1 1352 1353
850 1 1352 1354
851 1 1376 1377
852 1 1376 1378
853 1 1379 1380
854 1 1379 1381
855 1 1382 1383
856 1 1382 1384
857 1 1385 1386
858 1 1385 1387
859 1 1409 1410
860 1 1409 1411
861 1 1412 1413
862 1 1412 1414
863 1 1388 1389
864 1 1388 1390
865 1 1391 1392
866 1 1391 1393
867 1 1415 1416
868 1 1415 1417
869 1 1418 1419
870 1 1418 1420
871 1 1394 1395
872 1 1394 1396
873 1 1397 1398
874 1 1397 1399
875 1 1421 1422
876 1 1421 1423
877 1 1424 1425
878 1 1424 1426
879 1 1400 1401
880 1 1400 1402
881 1 1427 1428
882 1 1427 1429
883 1 1403 1404
884 1 1403 1405
885 1 1406 1407
886 1 1406 1408
887 1 1430 1431
888 1 1430 1432
889 1 1433 1434
890 1 1433 1435
891 1 1436 1437
892 1 1436 1438
893 1 1439 1440
894 1 1439 1441
895 1 1442 1443
896 1 1442 1444
897 1 1445 1446
898 1 1445 1447
899 1 1448 1449
900 1 1448 1450
901 1 1451 1452
902 1 1451 1453
903 1 1454 1455
904 1 1454 1456
905 1 1457 1458
906 1 1457 1459
907 1 1460 1461
908 1 1460 1462
909 1 1463 1464
910 1 1463 1465
911 1 1466 1467
912 1 1466 1468
913 1 1490 1491
914 1 1490 1492
915 1 1493 1494
916 1 1493 1495
917 1 1469 1470
918 1 1469 1471
919 1 1472 1473
920 1 1472 1474
921 1 1496 1497
922 1 1496 1498
923 1 1499 1500
924 1 1499 1501
925 1 1475 1476
926 1 1475 1477
927 1 1478 1479
928 1 1478 1480
929 1 1502 1503
930 1 1502 1504
931 1 1481 1482
932 1 1481 1483
933 1 1505 1506
934 1 1505 1507
935 1 1484 1485
936 1 1484 1486
937 1 1487 1488
938 1 1487 1489
939 1 1508 1509
940 1 1508 1510
941 1 1511 1512
942 1 1511 1513
943 1 1514 1515
944 1 1514 1516
945 1 1517 1518
946 1 1517 1519
947 1 1541 1542
948 1 1541 1543
949 1 1544 1545
950 1 1544 1546
951 1 1520 1521
952 1 1520 1522
953 1 1523 1524
954 1 1523 1525
955 1 1547 1548
956 1 1547 1549
957 1 1550 1551
958 1 1550 1552
959 1 1526 1527
960 1 1526 1528
961 1 1529 1530
962 1 1529 1531
963 1 1553 1554
964 1 1553 1555
965 1 1556 1557
966 1 1556 1558
967 1 1532 1533
968 1 1532 1534
969 1 1559 1560
970 1 1559 1561
971 1 1535 1536
972 1 1535 1537
973 1 1538 1539
974 1 1538 1540
975 1 1562 1563
976 1 1562 1564
977 1 1565 1566
978 1 1565 1567
979 1 1568 1569
980 1 1568 1570
981 1 1571 1572
982 1 1571 1573
983 1 1595 1596
984 1 1595 1597
985 1 1598 1599
986 1 1598 1600
987 1 1574 1575
988 1 1574 1576
989 1 1577 1578
990 1 1577 1579
991 1 1601 1602
992 1 1601 1603
993 1 1604 1605
994 1 1604 1606
995 1 1580 1581
996 1 1580 1582
997 1 1583 1584
998 1 1583 1585
999 1 1607 1608
1000 1 1607 1609
1001 1 1610 1611
1002 1 1610 1612
1003 1 1586 1587
1004 1 1586 1588
1005 1 1613 1614
1006 1 1613 1615
1007 1 1589 1590
1008 1 1589 1591
1009 1 1592 1593
1010 1 1592 1594
1011 1 1616 1617
1012 1 1616 1618
1013 1 1619 1620
1014 1 1619 1621
1015 1 1622 1623
1016 1 1622 1624
1017 1 1625 1626
1018 1 1625 1627
1019 1 1649 1650
1020 1 1649 1651
1021 1 1652 1653
1022 1 1652 1654
1023 1 1628 1629
1024 1 1628 1630
1025 1 1631 1632
1026 1 1631 1633
1027 1 1655 1656
1028 1 1655 1657
1029 1 1658 1659
1030 1 1658 1660
1031 1 1634 1635
1032 1 1634 1636
1033 1 1637 1638
1034 1 1637 1639
1035 1 1661 1662
1036 1 1661 1663
1037 1 1664 1665
1038 1 1664 1666
1039 1 1640 1641
1040 1 1640 1642
1041 1 1667 1668
1042 1 1667 1669
1043 1 1643 1644
1044 1 1643 1645
1045 1 1646 1647
1046 1 1646 1648
1047 1 1670 1671
1048 1 1670 1672
1049 1 1673 1674
1050 1 1673 1675
1051 1 1676 1677
1052 1 1676 1678
1053 1 1679 1680
1054 1 1679 1681
1055 1 1682 1683
1056 1 1682 1684
1057 1 1685 1686
1058 1 1685 1687
1059 1 1688 1689
1060 1 1688 1690
1061 1 1691 1692
1062 1 1691 1693
1063 1 1694 1695
1064 1 1694 1696
1065 1 1697 1698
1066 1 1697 1699
1067 1 1700 1701
1068 1 1700 1702
1069 1 1703 1704
1070 1 1703 1705
1071 1 1706 1707
1072 1 1706 1708
1073 1 1730 1731
1074 1 1730 1732
1075 1 1733 1734
1076 1 1733 1735
1077 1 1709 1710
1078 1 1709 1711
1079 1 1712 1713
1080 1 1712 1714
1081 1 1736 1737
1082 1 1736 1738
1083 1 1739 1740
1084 1 1739 1741
1085 1 1715 1716
1086 1 1715 1717
1087 1 1718 1719
1088 1 1718 1720
1089 1 1742 1743
1090 1 1742 1744
1091 1 1745 1746
1092 1 1745 1747
1093 1 1721 1722
1094 1 1721 1723
1095 1 1748 1749
1096 1 1748 1750
1097 1 1724 1725
1098 1 1724 1726
1099 1 1727 1728
1100 1 1727 1729
1101 1 1751 1752
1102 1 1751 1753
1103 1 1754 1755
1104 1 1754 1756

Angles

1 1 102 101 103
2 1 105 104 106
3 1 129 128 130
4 1 132 131 133
5 1 108 107 109
6 1 111 110 112
7 1 135 134 136
8 1 138 137 139
9 1 114 113 115
10 1 117 116 118
11 1 141 140 142
12 1 144 143 145
13 1 120 119 121
14 1 147 146 148
15 1 123 122 124
16 1 126 125 127
17 1 150 149 151
18 1 153 152 154
19 1 156 155 157
20 1 159 158 160
21 1 183 182 184
22 1 186 185 187
23 1 162 161 163
24 1 165 164 166
25 1 189 188 190
26 1 168 167 169
27 1 171 170 172
28 1 192 191 193
29 1 195 194 196
30 1 174 173 175
31 1 198 197 199
32 1 177 176 178
33 1 180 179 181
34 1 201 200 202
35 1 204 203 205
36 1 207 206 208
37 1 210 209 211
38 1 234 233 235
39 1 237 236 238
40 1 213 212 214
41 1 216 215 217
42 1 240 239 241
43 1 243 242 244
44 1 219 218 220
45 1 222 221 223
46 1 246 245 247
47 1 249 248 250
48 1 225 224 226
49 1 252 251 253
50 1 228 227 229
51 1 231 230 232
52 1 255 254 256
53 1 258 257 259
54 1 261 260 262
55 1 264 263 265
56 1 267 266 268
57 1 270 269 271
58 1 273 272 274
59 1 276 275 277
60 1 279 278 280
61 1 282 281 283
62 1 285 284 286
63 1 288 287 289
64 1 291 290 292
65 1 315 314 316
66 1 318 317 319
67 1 294 293 295
68 1 297 296 298
69 1 321 320 322
70 1 324 323 325
71 1 300 299 301
72 1 303 302 304
73 1 327 326 328
74 1 330 329 331
75 1 306 305 307
76 1 333 332 334
77 1 309 308 310
78 1 312 311 313
79 1 336 335 337
80 1 339 338 340
81 1 342 341 343
82 1 345 344 346
83 1 369 368 370
84 1 372 371 373
85 1 573 572 574
86 1 576 575 577
87 1 600 599 601
88 1 603 602 604
89 1 348 347 349
90 1 351 350 352
91 1 375 374 376
92 1 378 377 379
93 1 579 578 580
94 1 582 581 583
95 1 606 605 607
96 1 609 608 610
97 1 354 353 355
98 1 357 356 358
99 1 381 380 382
100 1 384 383 385
101 1 585 584 586
102 1 588 587 589
103 1 612 611 613
104 1 615 614 616
105 1 360 359 361
106 1 387 386 388
107 1 591 590 592
108 1 618 617 619
109 1 363 362 364
110 1 366 365 367
111 1 390 389 391
112 1 594 593 595
113 1 597 596 598
114 1 621 620 622
115 1 624 623 625
116 1 393 392 394
117 1 417 416 418
118 1 420 419 421
119 1 627 626 628
120 1 630 629 631
121 1 654 653 655
122 1 657 656 658
123 1 396 395 397
124 1 399 398 400
125 1 423 422 424
126 1 426 425 427
127 1 633 632 634
128 1 636 635 637
129 1 660 659 661
130 1 663 662 664
131 1 402 401 403
132 1 405 404 406
133 1 429 428 430
134 1 432 431 433
135 1 639 638 640
136 1 642 641 643
137 1 666 665 667
138 1 669 668 670
139 1 408 407 409
140 1 435 434 436
141 1 645 644 646
142 1 672 671 673
143 1 411 410 412
144 1 414 413 415
145 1 438 437 439
146 1 441 440 442
147 1 648 647 649
148 1 651 650 652
149 1 675 674 676
150 1 678 677 679
151 1 444 443 445
152 1 447 446 448
153 1 468 467 469
154 1 471 470 472
155 1 681 680 682
156 1 702 701 703
157 1 705 704 706
158 1 450 449 451
159 1 453 452 454
160 1 474 473 475
161 1 477 476 478
162 1 684 683 685
163 1 687 686 688
164 1 708 707 709
165 1 711 710 712
166 1 456 455 457
167 1 459 458 460
168 1 480 479 481
169 1 483 482 484
170 1 690 689 691
171 1 693 692 694
172 1 714 713 715
173 1 717 716 718
174 1 462 461 463
175 1 486 485 487
176 1 696 695 697
177 1 720 719 721
178 1 465 464 466
179 1 489 488 490
180 1 492 491 493
181 1 699 698 700
182 1 723 722 724
183 1 726 725 727
184 1 495 494 496
185 1 498 497 499
186 1 729 728 730
187 1 732 731 733
188 1 501 500 502
189 1 504 503 505
190 1 735 734 736
191 1 738 737 739
192 1 507 506 508
193 1 510 509 511
194 1 741 740 742
195 1 744 743 745
196 1 513 512 514
197 1 747 746 748
198 1 516 515 517
199 1 750 749 751
200 1 753 752 754
201 1 519 518 520
202 1 522 521 523
203 1 546 545 547
204 1 549 548 550
205 1 756 755 757
206 1 759 758 760
207 1 780 779 781
208 1 783 782 784
209 1 525 524 526
210 1 528 527 529
211 1 552 551 553
212 1 555 554 556
213 1 762 761 763
214 1 765 764 766
215 1 786 785 787
216 1 789 788 790
217 1 531 530 532
218 1 534 533 535
219 1 558 557 559
220 1 561 560 562
221 1 768 767 769
222 1 771 770 772
223 1 792 791 793
224 1 795 794 796
225 1 537 536 538
226 1 564 563 565
227 1 774 773 775
228 1 798 797 799
229 1 540 539 541
230 1 543 542 544
231 1 567 566 568
232 1 570 569 571
233 1 777 776 778
234 1 801 800 802
235 1 804 803 805
236 1 807 806 808
237 1 810 809 811
238 1 831 830 832
239 1 834 833 835
240 1 1044 1043 1045
241 1 1047 1046 1048
242 1 1071 1070 1072
243 1 1074 1073 1075
244 1 813 812 814
245 1 816 815 817
246 1 837 836 838
247 1 840 839 841
248 1 1050 1049 1051
249 1 1053 1052 1054
250 1 1077 1076 1078
251 1 1080 1079 1081
252 1 819 818 820
253 1 822 821 823
254 1 843 842 844
255 1 846 845 847
256 1 1056 1055 1057
257 1 1059 1058 1060
258 1 1083 1082 1084
259 1 849 848 850
260 1 1062 1061 1063
261 1 1086 1085 1087
262 1 825 824 826
263 1 828 827 829
264 1 852 851 853
265 1 855 854 856
266 1 1065 1064 1066
267 1 1068 1067 1069
268 1 1089 1088 1090
269 1 1092 1091 1093
270 1 858 857 859
271 1 861 860 862
272 1 885 884 886
273 1 888 887 889
274 1 1095 1094 1096
275 1 1098 1097 1099
276 1 1122 1121 1123
277 1 1125 1124 1126
278 1 864 863 865
279 1 867 866 868
280 1 891 890 892
281 1 894 893 895
282 1 1101 1100 1102
283 1 1104 1103 1105
284 1 1128 1127 1129
285 1 1131 1130 1132
286 1 870 869 871
287 1 873 872 874
288 1 897 896 898
289 1 900 899 901
290 1 1107 1106 1108
291 1 1110 1109 1111
292 1 1134 1133 1135
293 1 1137 1136 1138
294 1 876 875 877
295 1 903 902 904
296 1 1113 1112 1114
297 1 1140 1139 1141
298 1 879 878 880
299 1 882 881 883
300 1 906 905 907
301 1 909 908 910
302 1 1116 1115 1117
303 1 1119 1118 1120
304 1 1143 1142 1144
305 1 1146 1145 1147
306 1 912 911 913
307 1 915 914 916
308 1 939 938 940
309 1 942 941 943
310 1 1149 1148 1150
311 1 1152 1151 1153
312 1 1176 1175 1177
313 1 1179 1178 1180
314 1 918 917 919
315 1 921 920 922
316 1 945 944 946
317 1 948 947 949
318 1 1155 1154 1156
319 1 1158 1157 1159
320 1 1182 1181 1183
321 1 1185 1184 1186
322 1 924 923 925
323 1 927 926 928
324 1 951 950 952
325 1 954 953 955
326 1 1161 1160 1162
327 1 1164 1163 1165
328 1 1188 1187 1189
329 1 1191 1190 1192
330 1 930 929 931
331 1 957 956 958
332 1 1167 1166 1168
333 1 933 932 934
334 1 936 935 937
335 1 960 959 961
336 1 963 962 964
337 1 1170 1169 1171
338 1 1173 1172 1174
339 1 1194 1193 1195
340 1 1197 1196 1198
341 1 966 965 967
342 1 969 968 970
343 1 1200 1199 1201
344 1 1203 1202 1204
345 1 972 971 973
346 1 975 974 976
347 1 1206 1205 1207
348 1 1209 1208 1210
349 1 978 977 979
350 1 981 980 982
351 1 1212 1211 1213
352 1 1215 1214 1216
353 1 984 983 985
354 1 1218 1217 1219
355 1 987 986 988
356 1 990 989 991
357 1 1221 1220 1222
358 1 1224 1223 1225
359 1 993 992 994
360 1 996 995 997
361 1 1017 1016 1018
362 1 1020 1019 1021
363 1 1227 1226 1228
364 1 1230 1229 1231
365 1 1254 1253 1255
366 1 1257 1256 1258
367 1 999 998 1000
368 1 1002 1001 1003
369 1 1023 1022 1024
370 1 1026 1025 1027
371 1 1233 1232 1234
372 1 1236 1235 1237
373 1 1260 1259 1261
374 1 1263 1262 1264
375 1 1005 1004 1006
376 1 1029 1028 1030
377 1 1032 1031 1033
378 1 1239 1238 1240
379 1 1242 1241 1243
380 1 1266 1265 1267
381 1 1269 1268 1270
382 1 1008 1007 1009
383 1 1035 1034 1036
384 1 1245 1244 1246
385 1 1272 1271 1273
386 1 1011 1010 1012
387 1 1014 1013 1015
388 1 1038 1037 1039
389 1 1041 1040 1042
390 1 1248 1247 1249
391 1 1251 1250 1252
392 1 1275 1274 1276
393 1 1278 1277 1279
394 1 1281 1280 1282
395 1 1284 1283 1285
396 1 1302 1301 1303
397 1 1305 1304 1306
398 1 1287 1286 1288
399 1 1308 1307 1309
400 1 1311 1310 1312
401 1 1290 1289 1291
402 1 1293 1292 1294
403 1 1314 1313 1315
404 1 1317 1316 1318
405 1 1320 1319 1321
406 1 1296 1295 1297
407 1 1299 1298 1300
408 1 1323 1322 1324
409 1 1326 1325 1327
410 1 1329 1328 1330
411 1 1332 1331 1333
412 1 1356 1355 1357
413 1 1359 1358 1360
414 1 1335 1334 1336
415 1 1338 1337 1339
416 1 1362 1361 1363
417 1 1365 1364 1366
418 1 1341 1340 1342
419 1 1344 1343 1345
420 1 1368 1367 1369
421 1 1371 1370 1372
422 1 1347 1346 1348
423 1 1374 1373 1375
424 1 1350 1349 1351
425 1 1353 1352 1354
426 1 1377 1376 1378
427 1 1380 1379 1381
428 1 1383 1382 1384
429 1 1386 1385 1387
430 1 1410 1409 1411
431 1 1413 1412 1414
432 1 1389 1388 1390
433 1 1392 1391 1393
434 1 1416 1415 1417
435 1 1419 1418 1420
436 1 1395 1394 1396
437 1 1398 1397 1399
438 1 1422 1421 1423
439 1 1425 1424 1426
440 1 1401 1400 1402
441 1 1428 1427 1429
442 1 1404 1403 1405
443 1 1407 1406 1408
444 1 1431 1430 1432
445 1 1434 1433 1435
446 1 1437 1436 1438
447 1 1440 1439 1441
448 1 1443 1442 1444
449 1 1446 1445 1447
450 1 1449 1448 1450
451 1 1452 1451 1453
452 1 1455 1454 1456
453 1 1458 1457 1459
454 1 1461 1460 1462
455 1 1464 1463 1465
456 1 1467 1466 1468
457 1 1491 1490 1492
458 1 1494 1493 1495
459 1 1470 1469 1471
460 1 1473 1472 1474
461 1 1497 1496 1498
462 1 1500 1499 1501
463 1 1476 1475 1477
464 1 1479 1478 1480
465 1 1503 1502 1504
466 1 1482 1481 1483
467 1 1506 1505 1507
468 1 1485 1484 1486
469 1 1488 1487 1489
470 1 1509 1508 1510
471 1 1512 1511 1513
472 1 1515 1514 1516
473 1 1518 1517 1519
474 1 1542 1541 1543
475 1 1545 1544 1546
476 1 1521 1520 1522
477 1 1524 1523 1525
478 1 1548 1547 1549
479 1 1551 1550 1552
480 1 1527 1526 1528
481 1 1530 1529 1531
482 1 1554 1553 1555
483 1 1557 1556 1558
484 1 1533 1532 1534
485 1 1560 1559 1561
486 1 1536 1535 1537
487 1 1539 1538 1540
488 1 1563 1562 1564
489 1 1566 1565 1567
490 1 1569 1568 1570
491 1 1572 1571 1573
492 1 1596 1595 1597
493 1 1599 1598 1600
494 1 1575 1574 1576
495 1 1578 1577 1579
496 1 1602 1601 1603
497 1 1605 1604 1606
498 1 1581 1580 1582
499 1 1584 1583 1585
500 1 1608 1607 1609
501 1 1611 1610 1612
502 1 1587 1586 1588
503 1 1614 1613 1615
504 1 1590 1589 1591
505 1 1593 1592 1594
506 1 1617 1616 1618
507 1 1620 1619 1621
508 1 1623 1622 1624
509 1 1626 1625 1627
510 1 1650 1649 1651
511 1 1653 1652 1654
512 1 1629 1628 1630
513 1 1632 1631 1633
514 1 1656 1655 1657
515 1 1659 1658 1660
516 1 1635 1634 1636
517 1 1638 1637 1639
518 1 1662 1661 1663
519 1 1665 1664 1666
520 1 1641 1640 1642
521 1 1668 1667 1669
522 1 1644 1643 1645
523 1 1647 1646 1648
524 1 1671 1670 1672
525 1 1674 1673 1675
526 1 1677 1676 1678
527 1 1680 1679 1681
528 1 1683 1682 1684
529 1 1686 1685 1687
530 1 1689 1688 1690
531 1 1692 1691 1693
532 1 1695 1694 1696
533 1 1698 1697 1699
534 1 1701 1700 1702
535 1 1704 1703 1705
536 1 1707 1706 1708
537 1 1731 1730 1732
538 1 1734 1733 1735
539 1 1710 1709 1711
540 1 1713 1712 1714
541 1 1737 1736 1738
542 1 1740 1739 1741
543 1 1716 1715 1717
544 1 1719 1718 1720
545 1 1743 1742 1744
546 1 1746 1745 1747
547 1 1722 1721 1723
548 1 1749 1748 1750
549 1 1725 1724 1726
550 1 1728 1727 1729
551 1 1752 1751 1753
552 1 1755 1754 1756
