SrCl2-Montmorillonite system (generated)

1339 atoms
720 bonds
360 angles

9 atom types
2 bond types
1 angle types

0.000000 20.920000 xlo xhi
0.000000 18.120000 ylo yhi
-5.280000 38.280000 zlo zhi

Masses

1 28.0855 # Si
2 26.9815 # Al
3 15.9994 # O
4 15.9994 # Oh
5 1.0079 # Ho
6 15.9994 # Ow
7 1.0079 # Hw
8 87.6200 # Sr
9 35.4530 # Cl

Atoms

1 1 3 -0.950000 0.000000 0.000000 -3.280000
2 1 3 -0.950000 5.230000 0.000000 -3.280000
3 1 3 -0.950000 0.000000 9.060000 -3.280000
4 1 3 -0.950000 5.230000 9.060000 -3.280000
5 1 1 1.200000 1.307500 2.265000 -2.400000
6 1 1 1.200000 3.922500 2.265000 -2.400000
7 1 1 1.200000 1.307500 6.795000 -2.400000
8 1 1 1.200000 3.922500 6.795000 -2.400000
9 1 3 -0.950000 1.307500 2.265000 -1.300000
10 1 3 -0.950000 3.922500 2.265000 -1.300000
11 1 3 -0.950000 1.307500 6.795000 -1.300000
12 1 3 -0.950000 3.922500 6.795000 -1.300000
13 1 2 1.575000 1.307500 2.265000 0.000000
14 1 2 1.575000 3.922500 2.265000 0.000000
15 1 2 1.575000 1.307500 6.795000 0.000000
16 1 2 1.575000 3.922500 6.795000 0.000000
17 1 4 -0.950000 1.307500 2.265000 0.650000
18 1 5 0.425000 1.307500 2.265000 1.250000
19 1 4 -0.950000 3.922500 6.795000 0.650000
20 1 5 0.425000 3.922500 6.795000 1.250000
21 1 3 -0.950000 1.307500 2.265000 1.300000
22 1 3 -0.950000 3.922500 2.265000 1.300000
23 1 3 -0.950000 1.307500 6.795000 1.300000
24 1 3 -0.950000 3.922500 6.795000 1.300000
25 1 1 1.200000 1.307500 2.265000 2.400000
26 1 1 1.200000 3.922500 2.265000 2.400000
27 1 1 1.200000 1.307500 6.795000 2.400000
28 1 1 1.200000 3.922500 6.795000 2.400000
29 1 3 -0.950000 0.000000 0.000000 3.280000
30 1 3 -0.950000 5.230000 0.000000 3.280000
31 1 3 -0.950000 0.000000 9.060000 3.280000
32 1 3 -0.950000 5.230000 9.060000 3.280000
33 1 3 -0.950000 0.000000 9.060000 -3.280000
34 1 3 -0.950000 5.230000 9.060000 -3.280000
35 1 3 -0.950000 0.000000 18.120000 -3.280000
36 1 3 -0.950000 5.230000 18.120000 -3.280000
37 1 1 1.200000 1.307500 11.325000 -2.400000
38 1 1 1.200000 3.922500 11.325000 -2.400000
39 1 1 1.200000 1.307500 15.855000 -2.400000
40 1 1 1.200000 3.922500 15.855000 -2.400000
41 1 3 -0.950000 1.307500 11.325000 -1.300000
42 1 3 -0.950000 3.922500 11.325000 -1.300000
43 1 3 -0.950000 1.307500 15.855000 -1.300000
44 1 3 -0.950000 3.922500 15.855000 -1.300000
45 1 2 1.575000 1.307500 11.325000 0.000000
46 1 2 1.575000 3.922500 11.325000 0.000000
47 1 2 1.575000 1.307500 15.855000 0.000000
48 1 2 1.575000 3.922500 15.855000 0.000000
49 1 4 -0.950000 1.307500 11.325000 0.650000
50 1 5 0.425000 1.307500 11.325000 1.250000
51 1 4 -0.950000 3.922500 15.855000 0.650000
52 1 5 0.425000 3.922500 15.855000 1.250000
53 1 3 -0.950000 1.307500 11.325000 1.300000
54 1 3 -0.950000 3.922500 11.325000 1.300000
55 1 3 -0.950000 1.307500 15.855000 1.300000
56 1 3 -0.950000 3.922500 15.855000 1.300000
57 1 1 1.200000 1.307500 11.325000 2.400000
58 1 1 1.200000 3.922500 11.325000 2.400000
59 1 1 1.200000 1.307500 15.855000 2.400000
60 1 1 1.200000 3.922500 15.855000 2.400000
61 1 3 -0.950000 0.000000 9.060000 3.280000
62 1 3 -0.950000 5.230000 9.060000 3.280000
63 1 3 -0.950000 0.000000 18.120000 3.280000
64 1 3 -0.950000 5.230000 18.120000 3.280000
65 1 3 -0.950000 5.230000 0.000000 -3.280000
66 1 3 -0.950000 10.460000 0.000000 -3.280000
67 1 3 -0.950000 5.230000 9.060000 -3.280000
68 1 3 -0.950000 10.460000 9.060000 -3.280000
69 1 1 1.200000 6.537500 2.265000 -2.400000
70 1 1 1.200000 9.152500 2.265000 -2.400000
71 1 1 1.200000 6.537500 6.795000 -2.400000
72 1 1 1.200000 9.152500 6.795000 -2.400000
73 1 3 -0.950000 6.537500 2.265000 -1.300000
74 1 3 -0.950000 9.152500 2.265000 -1.300000
75 1 3 -0.950000 6.537500 6.795000 -1.300000
76 1 3 -0.950000 9.152500 6.795000 -1.300000
77 1 2 1.575000 6.537500 2.265000 0.000000
78 1 2 1.575000 9.152500 2.265000 0.000000
79 1 2 1.575000 6.537500 6.795000 0.000000
80 1 2 1.575000 9.152500 6.795000 0.000000
81 1 4 -0.950000 6.537500 2.265000 0.650000
82 1 5 0.425000 6.537500 2.265000 1.250000
83 1 4 -0.950000 9.152500 6.795000 0.650000
84 1 5 0.425000 9.152500 6.795000 1.250000
85 1 3 -0.950000 6.537500 2.265000 1.300000
86 1 3 -0.950000 9.152500 2.265000 1.300000
87 1 3 -0.950000 6.537500 6.795000 1.300000
88 1 3 -0.950000 9.152500 6.795000 1.300000
89 1 1 1.200000 6.537500 2.265000 2.400000
90 1 1 1.200000 9.152500 2.265000 2.400000
91 1 1 1.200000 6.537500 6.795000 2.400000
92 1 1 1.200000 9.152500 6.795000 2.400000
93 1 3 -0.950000 5.230000 0.000000 3.280000
94 1 3 -0.950000 10.460000 0.000000 3.280000
95 1 3 -0.950000 5.230000 9.060000 3.280000
96 1 3 -0.950000 10.460000 9.060000 3.280000
97 1 3 -0.950000 5.230000 9.060000 -3.280000
98 1 3 -0.950000 10.460000 9.060000 -3.280000
99 1 3 -0.950000 5.230000 18.120000 -3.280000
100 1 3 -0.950000 10.460000 18.120000 -3.280000
101 1 1 1.200000 6.537500 11.325000 -2.400000
102 1 1 1.200000 9.152500 11.325000 -2.400000
103 1 1 1.200000 6.537500 15.855000 -2.400000
104 1 1 1.200000 9.152500 15.855000 -2.400000
105 1 3 -0.950000 6.537500 11.325000 -1.300000
106 1 3 -0.950000 9.152500 11.325000 -1.300000
107 1 3 -0.950000 6.537500 15.855000 -1.300000
108 1 3 -0.950000 9.152500 15.855000 -1.300000
109 1 2 1.575000 6.537500 11.325000 0.000000
110 1 2 1.575000 9.152500 11.325000 0.000000
111 1 2 1.575000 6.537500 15.855000 0.000000
112 1 2 1.575000 9.152500 15.855000 0.000000
113 1 4 -0.950000 6.537500 11.325000 0.650000
114 1 5 0.425000 6.537500 11.325000 1.250000
115 1 4 -0.950000 9.152500 15.855000 0.650000
116 1 5 0.425000 9.152500 15.855000 1.250000
117 1 3 -0.950000 6.537500 11.325000 1.300000
118 1 3 -0.950000 9.152500 11.325000 1.300000
119 1 3 -0.950000 6.537500 15.855000 1.300000
120 1 3 -0.950000 9.152500 15.855000 1.300000
121 1 1 1.200000 6.537500 11.325000 2.400000
122 1 1 1.200000 9.152500 11.325000 2.400000
123 1 1 1.200000 6.537500 15.855000 2.400000
124 1 1 1.200000 9.152500 15.855000 2.400000
125 1 3 -0.950000 5.230000 9.060000 3.280000
126 1 3 -0.950000 10.460000 9.060000 3.280000
127 1 3 -0.950000 5.230000 18.120000 3.280000
128 1 3 -0.950000 10.460000 18.120000 3.280000
129 1 3 -0.950000 10.460000 0.000000 -3.280000
130 1 3 -0.950000 15.690000 0.000000 -3.280000
131 1 3 -0.950000 10.460000 9.060000 -3.280000
132 1 3 -0.950000 15.690000 9.060000 -3.280000
133 1 1 1.200000 11.767500 2.265000 -2.400000
134 1 1 1.200000 14.382500 2.265000 -2.400000
135 1 1 1.200000 11.767500 6.795000 -2.400000
136 1 1 1.200000 14.382500 6.795000 -2.400000
137 1 3 -0.950000 11.767500 2.265000 -1.300000
138 1 3 -0.950000 14.382500 2.265000 -1.300000
139 1 3 -0.950000 11.767500 6.795000 -1.300000
140 1 3 -0.950000 14.382500 6.795000 -1.300000
141 1 2 1.575000 11.767500 2.265000 0.000000
142 1 2 1.575000 14.382500 2.265000 0.000000
143 1 2 1.575000 11.767500 6.795000 0.000000
144 1 2 1.575000 14.382500 6.795000 0.000000
145 1 4 -0.950000 11.767500 2.265000 0.650000
146 1 5 0.425000 11.767500 2.265000 1.250000
147 1 4 -0.950000 14.382500 6.795000 0.650000
148 1 5 0.425000 14.382500 6.795000 1.250000
149 1 3 -0.950000 11.767500 2.265000 1.300000
150 1 3 -0.950000 14.382500 2.265000 1.300000
151 1 3 -0.950000 11.767500 6.795000 1.300000
152 1 3 -0.950000 14.382500 6.795000 1.300000
153 1 1 1.200000 11.767500 2.265000 2.400000
154 1 1 1.200000 14.382500 2.265000 2.400000
155 1 1 1.200000 11.767500 6.795000 2.400000
156 1 1 1.200000 14.382500 6.795000 2.400000
157 1 3 -0.950000 10.460000 0.000000 3.280000
158 1 3 -0.950000 15.690000 0.000000 3.280000
159 1 3 -0.950000 10.460000 9.060000 3.280000
160 1 3 -0.950000 15.690000 9.060000 3.280000
161 1 3 -0.950000 10.460000 9.060000 -3.280000
162 1 3 -0.950000 15.690000 9.060000 -3.280000
163 1 3 -0.950000 10.460000 18.120000 -3.280000
164 1 3 -0.950000 15.690000 18.120000 -3.280000
165 1 1 1.200000 11.767500 11.325000 -2.400000
166 1 1 1.200000 14.382500 11.325000 -2.400000
167 1 1 1.200000 11.767500 15.855000 -2.400000
168 1 1 1.200000 14.382500 15.855000 -2.400000
169 1 3 -0.950000 11.767500 11.325000 -1.300000
170 1 3 -0.950000 14.382500 11.325000 -1.300000
171 1 3 -0.950000 11.767500 15.855000 -1.300000
172 1 3 -0.950000 14.382500 15.855000 -1.300000
173 1 2 1.575000 11.767500 11.325000 0.000000
174 1 2 1.575000 14.382500 11.325000 0.000000
175 1 2 1.575000 11.767500 15.855000 0.000000
176 1 2 1.575000 14.382500 15.855000 0.000000
177 1 4 -0.950000 11.767500 11.325000 0.650000
178 1 5 0.425000 11.767500 11.325000 1.250000
179 1 4 -0.950000 14.382500 15.855000 0.650000
180 1 5 0.425000 14.382500 15.855000 1.250000
181 1 3 -0.950000 11.767500 11.325000 1.300000
182 1 3 -0.950000 14.382500 11.325000 1.300000
183 1 3 -0.950000 11.767500 15.855000 1.300000
184 1 3 -0.950000 14.382500 15.855000 1.300000
185 1 1 1.200000 11.767500 11.325000 2.400000
186 1 1 1.200000 14.382500 11.325000 2.400000
187 1 1 1.200000 11.767500 15.855000 2.400000
188 1 1 1.200000 14.382500 15.855000 2.400000
189 1 3 -0.950000 10.460000 9.060000 3.280000
190 1 3 -0.950000 15.690000 9.060000 3.280000
191 1 3 -0.950000 10.460000 18.120000 3.280000
192 1 3 -0.950000 15.690000 18.120000 3.280000
193 1 3 -0.950000 15.690000 0.000000 -3.280000
194 1 3 -0.950000 20.920000 0.000000 -3.280000
195 1 3 -0.950000 15.690000 9.060000 -3.280000
196 1 3 -0.950000 20.920000 9.060000 -3.280000
197 1 1 1.200000 16.997500 2.265000 -2.400000
198 1 1 1.200000 19.612500 2.265000 -2.400000
199 1 1 1.200000 16.997500 6.795000 -2.400000
200 1 1 1.200000 19.612500 6.795000 -2.400000
201 1 3 -0.950000 16.997500 2.265000 -1.300000
202 1 3 -0.950000 19.612500 2.265000 -1.300000
203 1 3 -0.950000 16.997500 6.795000 -1.300000
204 1 3 -0.950000 19.612500 6.795000 -1.300000
205 1 2 1.575000 16.997500 2.265000 0.000000
206 1 2 1.575000 19.612500 2.265000 0.000000
207 1 2 1.575000 16.997500 6.795000 0.000000
208 1 2 1.575000 19.612500 6.795000 0.000000
209 1 4 -0.950000 16.997500 2.265000 0.650000
210 1 5 0.425000 16.997500 2.265000 1.250000
211 1 4 -0.950000 19.612500 6.795000 0.650000
212 1 5 0.425000 19.612500 6.795000 1.250000
213 1 3 -0.950000 16.997500 2.265000 1.300000
214 1 3 -0.950000 19.612500 2.265000 1.300000
215 1 3 -0.950000 16.997500 6.795000 1.300000
216 1 3 -0.950000 19.612500 6.795000 1.300000
217 1 1 1.200000 16.997500 2.265000 2.400000
218 1 1 1.200000 19.612500 2.265000 2.400000
219 1 1 1.200000 16.997500 6.795000 2.400000
220 1 1 1.200000 19.612500 6.795000 2.400000
221 1 3 -0.950000 15.690000 0.000000 3.280000
222 1 3 -0.950000 20.920000 0.000000 3.280000
223 1 3 -0.950000 15.690000 9.060000 3.280000
224 1 3 -0.950000 20.920000 9.060000 3.280000
225 1 3 -0.950000 15.690000 9.060000 -3.280000
226 1 3 -0.950000 20.920000 9.060000 -3.280000
227 1 3 -0.950000 15.690000 18.120000 -3.280000
228 1 3 -0.950000 20.920000 18.120000 -3.280000
229 1 1 1.200000 16.997500 11.325000 -2.400000
230 1 1 1.200000 19.612500 11.325000 -2.400000
231 1 1 1.200000 16.997500 15.855000 -2.400000
232 1 1 1.200000 19.612500 15.855000 -2.400000
233 1 3 -0.950000 16.997500 11.325000 -1.300000
234 1 3 -0.950000 19.612500 11.325000 -1.300000
235 1 3 -0.950000 16.997500 15.855000 -1.300000
236 1 3 -0.950000 19.612500 15.855000 -1.300000
237 1 2 1.575000 16.997500 11.325000 0.000000
238 1 2 1.575000 19.612500 11.325000 0.000000
239 1 2 1.575000 16.997500 15.855000 0.000000
240 1 2 1.575000 19.612500 15.855000 0.000000
241 1 4 -0.950000 16.997500 11.325000 0.650000
242 1 5 0.425000 16.997500 11.325000 1.250000
243 1 4 -0.950000 19.612500 15.855000 0.650000
244 1 5 0.425000 19.612500 15.855000 1.250000
245 1 3 -0.950000 16.997500 11.325000 1.300000
246 1 3 -0.950000 19.612500 11.325000 1.300000
247 1 3 -0.950000 16.997500 15.855000 1.300000
248 1 3 -0.950000 19.612500 15.855000 1.300000
249 1 1 1.200000 16.997500 11.325000 2.400000
250 1 1 1.200000 19.612500 11.325000 2.400000
251 1 1 1.200000 16.997500 15.855000 2.400000
252 1 1 1.200000 19.612500 15.855000 2.400000
253 1 3 -0.950000 15.690000 9.060000 3.280000
254 1 3 -0.950000 20.920000 9.060000 3.280000
255 1 3 -0.950000 15.690000 18.120000 3.280000
256 1 3 -0.950000 20.920000 18.120000 3.280000
257 1 6 -0.820000 1.771219 1.415002 5.735006
258 1 7 0.410000 1.338805 2.316677 5.159732
259 1 7 0.410000 1.065234 0.706775 5.159732
260 1 6 -0.820000 5.308436 1.427388 5.764384
261 1 7 0.410000 6.003195 2.146631 6.330570
262 1 7 0.410000 4.398750 1.842684 6.330570
263 1 6 -0.820000 8.621974 1.449768 5.809977
264 1 7 0.410000 7.998694 0.667769 6.377407
265 1 7 0.410000 9.567002 1.122779 6.377407
266 1 6 -0.820000 12.265219 1.411300 5.841164
267 1 7 0.410000 12.550827 0.452953 6.328157
268 1 7 0.410000 13.073567 2.000005 6.328157
269 1 6 -0.820000 15.781443 1.477319 5.698549
270 1 7 0.410000 16.122103 2.417505 5.226171
271 1 7 0.410000 14.781473 1.485122 5.226171
272 1 6 -0.820000 19.238092 1.555946 5.787246
273 1 7 0.410000 20.140025 1.987822 6.186334
274 1 7 0.410000 18.530286 2.262353 6.186334
275 1 6 -0.820000 1.809214 4.553704 5.852341
276 1 7 0.410000 1.356963 3.661813 5.298343
277 1 7 0.410000 2.800844 4.424593 5.298343
278 1 6 -0.820000 5.175580 4.487878 5.695958
279 1 7 0.410000 4.689706 5.361907 6.038254
280 1 7 0.410000 4.513479 3.738463 6.038254
281 1 6 -0.820000 8.743804 4.502966 5.754036
282 1 7 0.410000 8.390532 5.438487 6.328113
283 1 7 0.410000 7.979529 3.858075 6.328113
284 1 6 -0.820000 12.232940 4.551826 5.714228
285 1 7 0.410000 12.698565 3.666844 6.208210
286 1 7 0.410000 12.912117 5.285801 6.208210
287 1 6 -0.820000 15.787905 4.558000 5.791390
288 1 7 0.410000 15.991139 3.578870 5.309531
289 1 7 0.410000 16.643304 5.075969 5.309531
290 1 6 -0.820000 19.122476 4.436420 5.743091
291 1 7 0.410000 18.457875 5.183619 6.303187
292 1 7 0.410000 18.639526 3.560772 6.303187
293 1 6 -0.820000 1.818607 7.512936 5.811088
294 1 7 0.410000 0.819418 7.553198 5.515777
295 1 7 0.410000 2.113689 6.557464 5.515777
296 1 6 -0.820000 5.182976 7.499326 5.792274
297 1 7 0.410000 4.542170 8.267028 5.499668
298 1 7 0.410000 4.672763 6.639277 5.499668
299 1 6 -0.820000 8.696547 7.493864 5.879508
300 1 7 0.410000 7.916056 6.868697 6.191652
301 1 7 0.410000 9.546112 6.966381 6.191652
302 1 6 -0.820000 12.125263 7.575489 5.838416
303 1 7 0.410000 11.133242 7.449419 6.062801
304 1 7 0.410000 12.574778 6.682217 6.062801
305 1 6 -0.820000 15.789224 7.555823 5.874216
306 1 7 0.410000 16.755805 7.299461 5.915829
307 1 7 0.410000 15.708752 8.552580 5.915829
308 1 6 -0.820000 19.213009 7.557394 5.733365
309 1 7 0.410000 19.143448 6.559816 6.105708
310 1 7 0.410000 20.176727 7.824317 6.105708
311 1 6 -0.820000 1.734078 10.660763 5.855171
312 1 7 0.410000 1.090154 11.425853 5.853044
313 1 7 0.410000 1.227368 9.798647 5.853044
314 1 6 -0.820000 5.312526 10.644104 5.739689
315 1 7 0.410000 5.230358 9.647485 5.374553
316 1 7 0.410000 6.279541 10.898821 5.374553
317 1 6 -0.820000 8.769169 10.577876 5.835725
318 1 7 0.410000 8.076929 9.856208 5.837800
319 1 7 0.410000 9.680301 10.165762 5.837800
320 1 6 -0.820000 12.107229 10.655820 5.855744
321 1 7 0.410000 13.011047 10.227903 6.395813
322 1 7 0.410000 12.209421 11.650584 6.395813
323 1 6 -0.820000 15.765602 10.659390 5.697131
324 1 7 0.410000 14.901517 10.156045 5.940370
325 1 7 0.410000 16.528175 10.012488 5.940370
326 1 6 -0.820000 19.229834 10.495678 5.775056
327 1 7 0.410000 18.630730 9.695007 6.349834
328 1 7 0.410000 20.184409 10.197708 6.349834
329 1 6 -0.820000 1.727961 13.532360 5.787859
330 1 7 0.410000 2.198052 12.649742 6.338236
331 1 7 0.410000 2.403420 14.269757 6.338236
332 1 6 -0.820000 5.329030 13.619976 5.767620
333 1 7 0.410000 4.581143 12.956150 6.165497
334 1 7 0.410000 6.204176 13.136117 6.165497
335 1 6 -0.820000 8.684284 13.607662 5.726023
336 1 7 0.410000 8.268904 14.517310 5.975105
337 1 7 0.410000 7.965105 12.912837 5.975105
338 1 6 -0.820000 12.149122 13.671084 5.851927
339 1 7 0.410000 12.637383 14.543782 6.427647
340 1 7 0.410000 11.163584 13.840543 6.427647
341 1 6 -0.820000 15.632847 13.516462 5.867103
342 1 7 0.410000 15.145605 12.643196 5.965756
343 1 7 0.410000 16.618582 13.348154 5.965756
344 1 6 -0.820000 19.238166 13.528082 5.699386
345 1 7 0.410000 18.254732 13.346817 5.966085
346 1 7 0.410000 19.736857 12.661302 5.966085
347 1 6 -0.820000 1.789149 16.644673 5.876833
348 1 7 0.410000 2.119738 17.588448 6.208457
349 1 7 0.410000 0.789153 16.641786 6.208457
350 1 6 -0.820000 5.302335 16.559731 5.718042
351 1 7 0.410000 4.344843 16.271270 5.990186
352 1 7 0.410000 5.893445 15.753141 5.990186
353 1 6 -0.820000 8.666628 16.694653 5.768626
354 1 7 0.410000 9.634120 16.441751 5.589090
355 1 7 0.410000 8.582590 17.691116 5.589090
356 1 6 -0.820000 12.303190 16.677206 5.873799
357 1 7 0.410000 13.291532 16.829452 5.403941
358 1 7 0.410000 11.830222 17.558285 5.403941
359 1 6 -0.820000 15.687128 16.552749 5.760208
360 1 7 0.410000 16.240901 17.385417 6.158145
361 1 7 0.410000 14.717496 16.797317 6.158145
362 1 6 -0.820000 19.129707 16.666814 5.771002
363 1 7 0.410000 18.138371 16.535463 5.618014
364 1 7 0.410000 19.583973 15.775948 5.618014
365 1 6 -0.820000 1.754487 1.553682 8.710959
366 1 7 0.410000 0.965619 2.168245 8.598178
367 1 7 0.410000 1.438007 0.605082 8.598178
368 1 6 -0.820000 5.238439 1.559595 8.691433
369 1 7 0.410000 4.824841 0.649136 8.681093
370 1 7 0.410000 6.234693 1.473116 8.681093
371 1 6 -0.820000 8.648153 1.602156 8.696022
372 1 7 0.410000 8.437477 2.579712 8.371393
373 1 7 0.410000 7.796719 1.077694 8.371393
374 1 6 -0.820000 12.150374 1.433977 8.858057
375 1 7 0.410000 11.592592 2.263965 8.534978
376 1 7 0.410000 11.553764 0.631446 8.534978
377 1 6 -0.820000 15.673845 1.526734 8.784557
378 1 7 0.410000 16.652858 1.730534 9.338235
379 1 7 0.410000 15.155381 2.381834 9.338235
380 1 6 -0.820000 19.124404 1.489157 8.814338
381 1 7 0.410000 18.323004 2.087287 9.342501
382 1 7 0.410000 18.827595 0.534220 9.342501
383 1 6 -0.820000 1.657842 4.521657 8.879691
384 1 7 0.410000 2.488246 5.078819 9.136169
385 1 7 0.410000 0.855756 5.118866 9.136169
386 1 6 -0.820000 5.183040 4.616652 8.856173
387 1 7 0.410000 6.172822 4.474062 9.278222
388 1 7 0.410000 4.987568 5.597361 9.278222
389 1 6 -0.820000 8.783416 4.570708 8.802336
390 1 7 0.410000 9.643545 5.080784 8.326910
391 1 7 0.410000 8.015815 5.211637 8.326910
392 1 6 -0.820000 12.266754 4.489876 8.812678
393 1 7 0.410000 13.240014 4.719582 9.244056
394 1 7 0.410000 11.725783 5.330917 9.244056
395 1 6 -0.820000 15.611407 4.540645 8.734470
396 1 7 0.410000 15.319098 3.584321 8.169024
397 1 7 0.410000 16.610475 4.583806 8.169024
398 1 6 -0.820000 19.203514 4.482797 8.777706
399 1 7 0.410000 20.203300 4.503497 8.302446
400 1 7 0.410000 18.850756 5.418511 8.302446
401 1 6 -0.820000 1.728048 7.505336 8.680709
402 1 7 0.410000 2.408359 6.772412 8.242594
403 1 7 0.410000 2.192304 8.391037 8.242594
404 1 6 -0.820000 5.278246 7.560336 8.765537
405 1 7 0.410000 6.058173 8.186206 9.028441
406 1 7 0.410000 4.428206 8.087053 9.028441
407 1 6 -0.820000 8.797452 7.559118 8.846919
408 1 7 0.410000 8.374335 6.653043 9.309914
409 1 7 0.410000 9.792745 7.462203 9.309914
410 1 6 -0.820000 12.164985 7.629796 8.839224
411 1 7 0.410000 13.131441 7.372966 8.496713
412 1 7 0.410000 12.084996 8.626592 8.496713
413 1 6 -0.820000 15.639906 7.470559 8.836023
414 1 7 0.410000 16.633583 7.358283 9.156402
415 1 7 0.410000 15.414555 8.444836 9.156402
416 1 6 -0.820000 19.107577 7.635976 8.852921
417 1 7 0.410000 20.000955 8.085282 8.317143
418 1 7 0.410000 18.386190 8.328508 8.317143
419 1 6 -0.820000 1.648291 10.617313 8.746437
420 1 7 0.410000 2.631992 10.797123 8.199896
421 1 7 0.410000 1.150882 11.484829 8.199896
422 1 6 -0.820000 5.292150 10.523361 8.837475
423 1 7 0.410000 5.564776 11.485481 8.422018
424 1 7 0.410000 4.294178 10.459710 8.422018
425 1 6 -0.820000 8.661153 10.633317 8.772061
426 1 7 0.410000 7.840665 11.204981 8.217977
427 1 7 0.410000 8.395660 9.669205 8.217977
428 1 6 -0.820000 12.108066 10.508626 8.745652
429 1 7 0.410000 13.080159 10.274028 8.626402
430 1 7 0.410000 12.005238 11.503325 8.626402
431 1 6 -0.820000 15.718296 10.549936 8.876230
432 1 7 0.410000 15.053101 9.803267 8.661119
433 1 7 0.410000 16.643987 10.171653 8.661119
434 1 6 -0.820000 19.270747 10.505714 8.872507
435 1 7 0.410000 18.616892 11.262333 9.236046
436 1 7 0.410000 18.775332 9.637057 9.236046
437 1 6 -0.820000 1.789042 13.552735 8.801242
438 1 7 0.410000 1.016057 12.918311 9.182524
439 1 7 0.410000 2.644834 13.035415 9.182524
440 1 6 -0.820000 5.180945 13.631757 8.680338
441 1 7 0.410000 6.170032 13.779084 8.542201
442 1 7 0.410000 4.712366 14.515179 8.542201
443 1 6 -0.820000 8.765057 13.624126 8.752844
444 1 7 0.410000 9.258155 14.494099 8.257301
445 1 7 0.410000 7.780475 13.799053 8.257301
446 1 6 -0.820000 12.166116 13.659603 8.823951
447 1 7 0.410000 11.363497 14.256094 9.361716
448 1 7 0.410000 11.871259 12.704062 9.361716
449 1 6 -0.820000 15.670480 13.549131 8.705458
450 1 7 0.410000 14.677159 13.433749 8.494145
451 1 7 0.410000 16.110352 12.651070 8.494145
452 1 6 -0.820000 19.257228 13.613103 8.740190
453 1 7 0.410000 18.648777 12.819512 8.741663
454 1 7 0.410000 20.208243 13.303960 8.741663
455 1 6 -0.820000 1.729311 16.625997 8.810941
456 1 7 0.410000 0.806509 16.240723 9.016177
457 1 7 0.410000 2.400136 15.884381 9.016177
458 1 6 -0.820000 5.224637 16.690236 8.839205
459 1 7 0.410000 5.113968 17.684093 9.132466
460 1 7 0.410000 4.324500 16.254630 9.132466
461 1 6 -0.820000 8.743255 16.577038 8.843685
462 1 7 0.410000 9.326438 15.764697 8.332934
463 1 7 0.410000 9.314760 17.397636 8.332934
464 1 6 -0.820000 12.143159 16.514885 8.728969
465 1 7 0.410000 11.246782 16.071594 8.261317
466 1 7 0.410000 12.859876 15.817521 8.261317
467 1 6 -0.820000 15.672888 16.635953 8.718887
468 1 7 0.410000 15.947729 15.674463 8.739280
469 1 7 0.410000 16.487788 17.215555 8.739280
470 1 6 -0.820000 19.207878 16.511109 8.830193
471 1 7 0.410000 19.883232 15.773615 9.188592
472 1 7 0.410000 19.678095 17.393660 9.188592
473 1 6 -0.820000 1.678511 1.601593 11.783592
474 1 7 0.410000 2.275525 2.403824 12.360943
475 1 7 0.410000 0.723162 1.897074 12.360943
476 1 6 -0.820000 5.221292 1.570283 11.813516
477 1 7 0.410000 6.079301 2.083919 11.487636
478 1 7 0.410000 4.451043 2.208026 11.487636
479 1 6 -0.820000 8.794952 1.532530 11.823855
480 1 7 0.410000 7.996160 0.930923 11.318909
481 1 7 0.410000 9.628405 0.979941 11.318909
482 1 6 -0.820000 12.282775 1.558731 11.774935
483 1 7 0.410000 11.659251 2.340535 12.352207
484 1 7 0.410000 11.753506 0.710277 12.352207
485 1 6 -0.820000 15.743163 1.514260 11.805350
486 1 7 0.410000 15.046998 2.232142 12.075460
487 1 7 0.410000 15.298372 0.618625 12.075460
488 1 6 -0.820000 19.131010 1.473942 11.788030
489 1 7 0.410000 19.216780 2.470257 12.361392
490 1 7 0.410000 18.163079 1.222723 12.361392
491 1 6 -0.820000 1.784617 4.442846 11.761520
492 1 7 0.410000 1.149954 3.670057 12.052999
493 1 7 0.410000 2.724757 4.102056 12.052999
494 1 6 -0.820000 5.214029 4.610968 11.796816
495 1 7 0.410000 5.483844 3.648056 11.344491
496 1 7 0.410000 6.031945 5.186305 11.344491
497 1 6 -0.820000 8.692743 4.431179 11.750352
498 1 7 0.410000 9.287791 3.627489 11.290720
499 1 7 0.410000 9.252138 5.260081 11.290720
500 1 6 -0.820000 12.187138 4.579503 11.789226
501 1 7 0.410000 11.885366 3.626123 12.356722
502 1 7 0.410000 13.186584 4.612762 12.356722
503 1 6 -0.820000 15.677167 4.435805 11.747226
504 1 7 0.410000 15.846621 3.450267 12.073797
505 1 7 0.410000 16.549867 4.924062 12.073797
506 1 6 -0.820000 19.170145 4.455526 11.804451
507 1 7 0.410000 19.877586 5.162298 12.161120
508 1 7 0.410000 18.267989 4.886936 12.161120
509 1 6 -0.820000 1.648754 7.578550 11.707140
510 1 7 0.410000 0.718186 7.212431 11.886535
511 1 7 0.410000 2.304107 6.823227 11.886535
512 1 6 -0.820000 5.172332 7.515369 11.832246
513 1 7 0.410000 4.182680 7.658854 11.254933
514 1 7 0.410000 5.366916 6.534483 11.254933
515 1 6 -0.820000 8.667121 7.466381 11.683877
516 1 7 0.410000 8.017087 6.706476 11.683542
517 1 7 0.410000 9.600237 7.106806 11.683542
518 1 6 -0.820000 12.233362 7.606247 11.810351
519 1 7 0.410000 12.832231 6.805400 11.630598
520 1 7 0.410000 12.788802 8.437803 11.630598
521 1 6 -0.820000 15.594076 7.480476 11.705244
522 1 7 0.410000 15.703293 6.486459 11.479383
523 1 7 0.410000 16.494849 7.914767 11.479383
524 1 6 -0.820000 19.216560 7.603380 11.713558
525 1 7 0.410000 18.938811 6.642726 11.136248
526 1 7 0.410000 20.214857 7.661712 11.136248
527 1 6 -0.820000 1.807194 10.662944 11.701620
528 1 7 0.410000 2.520331 11.363968 12.235780
529 1 7 0.410000 0.908558 11.101641 12.235780
530 1 6 -0.820000 5.321635 10.549331 11.823003
531 1 7 0.410000 5.781467 11.437337 11.285372
532 1 7 0.410000 4.331140 10.686884 11.285372
533 1 6 -0.820000 8.637047 10.624496 11.850059
534 1 7 0.410000 8.318306 9.676654 12.248069
535 1 7 0.410000 9.636928 10.639910 12.248069
536 1 6 -0.820000 12.259860 10.539441 11.765676
537 1 7 0.410000 11.279347 10.735891 11.744057
538 1 7 0.410000 12.401462 9.549517 11.744057
539 1 6 -0.820000 15.759915 10.634466 11.701108
540 1 7 0.410000 16.692563 10.995253 11.266624
541 1 7 0.410000 15.108895 11.393527 11.266624
542 1 6 -0.820000 19.218128 10.557097 11.826759
543 1 7 0.410000 20.139751 10.945185 12.399528
544 1 7 0.410000 18.545044 11.296663 12.399528
545 1 6 -0.820000 1.750968 13.586700 11.767115
546 1 7 0.410000 2.227121 12.707337 12.340622
547 1 7 0.410000 2.421337 14.328727 12.340622
548 1 6 -0.820000 5.296146 13.507333 11.856326
549 1 7 0.410000 4.750690 14.345472 11.983305
550 1 7 0.410000 4.687743 12.713705 11.983305
551 1 6 -0.820000 8.692465 13.495740 11.850191
552 1 7 0.410000 8.506329 14.478264 12.411274
553 1 7 0.410000 7.828166 12.992760 12.411274
554 1 6 -0.820000 12.171401 13.666064 11.820237
555 1 7 0.410000 11.467737 14.376597 11.857037
556 1 7 0.410000 11.736039 12.765808 11.857037
557 1 6 -0.820000 15.607123 13.634015 11.777716
558 1 7 0.410000 16.225590 12.848204 11.240091
559 1 7 0.410000 16.141854 14.479037 11.240091
560 1 6 -0.820000 19.174831 13.648587 11.698611
561 1 7 0.410000 18.751585 14.554601 11.159443
562 1 7 0.410000 18.461699 12.947557 11.159443
563 1 6 -0.820000 1.759644 16.604652 11.786184
564 1 7 0.410000 0.770491 16.457768 11.209014
565 1 7 0.410000 2.227827 15.721020 11.209014
566 1 6 -0.820000 5.270571 16.564183 11.730281
567 1 7 0.410000 5.466498 17.544802 12.270476
568 1 7 0.410000 4.280723 16.422053 12.270476
569 1 6 -0.820000 8.723839 16.662438 11.717030
570 1 7 0.410000 8.330484 17.581824 11.774258
571 1 7 0.410000 7.988138 15.985132 11.774258
572 1 6 -0.820000 12.298655 16.614927 11.736600
573 1 7 0.410000 12.616714 17.562998 12.278733
574 1 7 0.410000 11.298785 16.598794 12.278733
575 1 6 -0.820000 15.625888 16.512830 11.786827
576 1 7 0.410000 14.931016 17.231962 11.693983
577 1 7 0.410000 15.179489 15.617996 11.693983
578 1 6 -0.820000 19.216150 16.535256 11.853692
579 1 7 0.410000 18.367929 16.005613 11.439631
580 1 7 0.410000 19.998229 15.912077 11.439631
581 1 6 -0.820000 1.737213 1.498094 14.716873
582 1 7 0.410000 2.328373 2.304648 14.507925
583 1 7 0.410000 0.779739 1.786614 14.507925
584 1 6 -0.820000 5.294423 1.490141 14.694816
585 1 7 0.410000 5.152925 0.500203 14.885635
586 1 7 0.410000 6.274916 1.686694 14.885635
587 1 6 -0.820000 8.729235 1.470767 14.878784
588 1 7 0.410000 8.938724 2.448578 14.303801
589 1 7 0.410000 7.737513 1.342360 14.303801
590 1 6 -0.820000 12.261481 1.455137 14.784515
591 1 7 0.410000 11.307504 1.155261 14.987846
592 1 7 0.410000 12.862184 0.655665 14.987846
593 1 6 -0.820000 15.788006 1.471076 14.804205
594 1 7 0.410000 15.524674 0.506371 14.227966
595 1 7 0.410000 16.785318 1.544351 14.227966
596 1 6 -0.820000 19.118224 1.452205 14.812086
597 1 7 0.410000 19.086717 2.451709 15.324548
598 1 7 0.410000 18.186378 1.089351 15.324548
599 1 6 -0.820000 1.643868 4.520101 14.798762
600 1 7 0.410000 0.876498 5.161305 15.372215
601 1 7 0.410000 1.295106 3.582890 15.372215
602 1 6 -0.820000 5.270598 4.520806 14.817477
603 1 7 0.410000 6.261172 4.657784 14.256349
604 1 7 0.410000 4.811282 5.409079 14.256349
605 1 6 -0.820000 8.748903 4.616734 14.765028
606 1 7 0.410000 8.123762 3.836222 14.303029
607 1 7 0.410000 9.693150 4.287495 14.303029
608 1 6 -0.820000 12.268660 4.444282 14.713185
609 1 7 0.410000 11.439571 5.003399 14.135838
610 1 7 0.410000 12.017861 3.476243 14.135838
611 1 6 -0.820000 15.647722 4.454871 14.817736
612 1 7 0.410000 15.942915 3.499433 14.614252
613 1 7 0.410000 16.450132 5.051644 14.614252
614 1 6 -0.820000 19.175426 4.446088 14.687972
615 1 7 0.410000 18.193123 4.258787 15.206741
616 1 7 0.410000 19.679431 3.582388 15.206741
617 1 6 -0.820000 1.661599 7.642382 14.847192
618 1 7 0.410000 1.197324 6.756691 14.671493
619 1 7 0.410000 2.651392 7.499869 14.671493
620 1 6 -0.820000 5.264456 7.503902 14.688046
621 1 7 0.410000 5.873519 6.710780 14.794447
622 1 7 0.410000 5.809216 8.342495 14.794447
623 1 6 -0.820000 8.799881 7.486298 14.797066
624 1 7 0.410000 8.691665 6.492170 14.827068
625 1 7 0.410000 9.773230 7.715626 14.827068
626 1 6 -0.820000 12.172926 7.516662 14.814027
627 1 7 0.410000 13.134422 7.241845 15.320313
628 1 7 0.410000 12.111548 8.514776 15.320313
629 1 6 -0.820000 15.647644 7.639039 14.842713
630 1 7 0.410000 15.050015 6.837265 15.004398
631 1 7 0.410000 16.602766 7.342827 15.004398
632 1 6 -0.820000 19.141321 7.644037 14.760835
633 1 7 0.410000 18.381138 6.994328 14.717776
634 1 7 0.410000 20.007257 7.143881 14.717776
635 1 6 -0.820000 1.751852 10.552650 14.717517
636 1 7 0.410000 0.783680 10.802935 14.140631
637 1 7 0.410000 1.838583 9.556418 14.140631
638 1 6 -0.820000 5.281998 10.510712 14.789844
639 1 7 0.410000 6.269058 10.671061 15.008723
640 1 7 0.410000 4.801818 11.387881 15.008723
641 1 6 -0.820000 8.640952 10.664629 14.801774
642 1 7 0.410000 8.119762 11.518070 15.286077
643 1 7 0.410000 8.010033 9.888780 15.286077
644 1 6 -0.820000 12.213784 10.488642 14.878451
645 1 7 0.410000 13.211444 10.557001 15.016941
646 1 7 0.410000 11.816800 11.406467 15.016941
647 1 6 -0.820000 15.756429 10.569675 14.823321
648 1 7 0.410000 14.973374 9.947722 15.394437
649 1 7 0.410000 16.603819 10.038704 15.394437
650 1 6 -0.820000 19.272716 10.518746 14.790253
651 1 7 0.410000 18.279431 10.634447 14.518066
652 1 7 0.410000 19.494706 9.543697 14.518066
653 1 6 -0.820000 1.819199 13.662805 14.735249
654 1 7 0.410000 2.581497 13.015579 15.029329
655 1 7 0.410000 2.175330 14.597241 15.029329
656 1 6 -0.820000 5.231548 13.654110 14.736568
657 1 7 0.410000 4.435597 14.259472 14.436640
658 1 7 0.410000 4.926103 12.701900 14.436640
659 1 6 -0.820000 8.714595 13.519719 14.787716
660 1 7 0.410000 7.777864 13.869769 14.602700
661 1 7 0.410000 8.696787 12.519878 14.602700
662 1 6 -0.820000 12.194402 13.554355 14.717730
663 1 7 0.410000 12.476148 12.594866 14.466018
664 1 7 0.410000 13.005114 14.139800 14.466018
665 1 6 -0.820000 15.745109 13.498729 14.828941
666 1 7 0.410000 16.073102 12.554049 14.294029
667 1 7 0.410000 16.526444 14.122841 14.294029
668 1 6 -0.820000 19.209404 13.654150 14.876164
669 1 7 0.410000 18.376322 13.101001 15.009250
670 1 7 0.410000 20.008600 13.053078 15.009250
671 1 6 -0.820000 1.761369 16.683940 14.854838
672 1 7 0.410000 0.790132 16.445826 14.761113
673 1 7 0.410000 2.309593 15.847608 14.761113
674 1 6 -0.820000 5.274489 16.591996 14.810956
675 1 7 0.410000 5.259915 17.591890 14.920957
676 1 7 0.410000 4.336630 16.244978 14.920957
677 1 6 -0.820000 8.684379 16.648541 14.809967
678 1 7 0.410000 9.634897 16.337873 14.347917
679 1 7 0.410000 8.660461 17.648255 14.347917
680 1 6 -0.820000 12.179335 16.573332 14.823743
681 1 7 0.410000 12.803892 15.792353 14.408832
682 1 7 0.410000 12.707482 17.422485 14.408832
683 1 6 -0.820000 15.603684 16.636232 14.864186
684 1 7 0.410000 16.429405 17.200311 14.286946
685 1 7 0.410000 14.796638 17.226721 14.286946
686 1 6 -0.820000 19.096355 16.636750 14.854516
687 1 7 0.410000 18.130381 16.378111 14.312528
688 1 7 0.410000 19.662176 15.812221 14.312528
689 1 6 -0.820000 1.652532 1.569229 17.738674
690 1 7 0.410000 0.667100 1.739304 18.196141
691 1 7 0.410000 1.820639 0.583460 18.196141
692 1 6 -0.820000 5.243186 1.568504 17.713997
693 1 7 0.410000 5.686357 2.464941 17.295211
694 1 7 0.410000 4.250296 1.687539 17.295211
695 1 6 -0.820000 8.664833 1.592566 17.708624
696 1 7 0.410000 7.733008 1.229657 18.285802
697 1 7 0.410000 9.317579 0.834989 18.285802
698 1 6 -0.820000 12.105213 1.570927 17.860242
699 1 7 0.410000 12.265179 0.583804 18.343748
700 1 7 0.410000 12.982569 2.050766 18.343748
701 1 6 -0.820000 15.659113 1.527514 17.807788
702 1 7 0.410000 14.668884 1.388061 18.385147
703 1 7 0.410000 16.120648 0.640392 18.385147
704 1 6 -0.820000 19.116510 1.486939 17.776642
705 1 7 0.410000 18.606582 2.347156 17.524521
706 1 7 0.410000 18.475450 0.719448 17.524521
707 1 6 -0.820000 1.841872 4.489046 17.875589
708 1 7 0.410000 1.880743 3.489802 18.446131
709 1 7 0.410000 2.771019 4.858756 18.446131
710 1 6 -0.820000 5.267160 4.578934 17.689809
711 1 7 0.410000 4.984339 3.619761 17.701680
712 1 7 0.410000 6.265751 4.631990 17.701680
713 1 6 -0.820000 8.673905 4.589772 17.801413
714 1 7 0.410000 7.722308 4.897120 17.364471
715 1 7 0.410000 8.701313 3.590148 17.364471
716 1 6 -0.820000 12.238886 4.574186 17.811836
717 1 7 0.410000 13.159843 4.184521 17.395336
718 1 7 0.410000 12.299301 5.572359 17.395336
719 1 6 -0.820000 15.719268 4.491787 17.768165
720 1 7 0.410000 15.279510 3.593670 17.194348
721 1 7 0.410000 16.712604 4.376530 17.194348
722 1 6 -0.820000 19.135689 4.579496 17.715128
723 1 7 0.410000 19.260286 5.571704 17.573627
724 1 7 0.410000 18.158690 4.366252 17.573627
725 1 6 -0.820000 1.749504 7.632697 17.846095
726 1 7 0.410000 1.136952 8.423128 17.331154
727 1 7 0.410000 1.208445 6.791713 17.331154
728 1 6 -0.820000 5.291298 7.599312 17.747743
729 1 7 0.410000 5.520904 8.572595 17.614349
730 1 7 0.410000 4.297139 7.491380 17.614349
731 1 6 -0.820000 8.809967 7.622028 17.824843
732 1 7 0.410000 9.692552 8.092181 17.706944
733 1 7 0.410000 8.072522 8.297435 17.706944
734 1 6 -0.820000 12.176488 7.608136 17.682784
735 1 7 0.410000 11.512967 6.859979 17.844607
736 1 7 0.410000 13.103024 7.231929 17.844607
737 1 6 -0.820000 15.724468 7.566912 17.844483
738 1 7 0.410000 16.695727 7.804938 18.207863
739 1 7 0.410000 15.176320 8.403293 18.207863
740 1 6 -0.820000 19.081672 7.626847 17.792281
741 1 7 0.410000 20.078227 7.709779 18.360322
742 1 7 0.410000 18.671317 8.538773 18.360322
743 1 6 -0.820000 1.808104 10.651878 17.740438
744 1 7 0.410000 0.808876 10.612591 18.184785
745 1 7 0.410000 2.178200 9.722884 18.184785
746 1 6 -0.820000 5.190873 10.568525 17.699438
747 1 7 0.410000 6.186563 10.475778 18.134111
748 1 7 0.410000 4.946440 11.538191 18.134111
749 1 6 -0.820000 8.750764 10.618628 17.869195
750 1 7 0.410000 7.756520 10.511485 17.292517
751 1 7 0.410000 9.183174 9.716951 17.292517
752 1 6 -0.820000 12.186310 10.489804 17.777869
753 1 7 0.410000 11.187038 10.451648 17.604713
754 1 7 0.410000 12.555355 9.560393 17.604713
755 1 6 -0.820000 15.664106 10.558677 17.870111
756 1 7 0.410000 16.621562 10.270097 18.207577
757 1 7 0.410000 15.617051 11.557569 18.207577
758 1 6 -0.820000 19.185560 10.665569 17.751735
759 1 7 0.410000 18.185860 10.690083 18.288294
760 1 7 0.410000 19.495660 9.714865 18.288294
761 1 6 -0.820000 1.812940 13.580943 17.812554
762 1 7 0.410000 1.748035 12.583052 17.481621
763 1 7 0.410000 2.775402 13.852361 17.481621
764 1 6 -0.820000 5.287359 13.538714 17.705185
765 1 7 0.410000 4.765055 12.685954 17.946441
766 1 7 0.410000 6.265445 13.330513 17.946441
767 1 6 -0.820000 8.658098 13.533190 17.853939
768 1 7 0.410000 7.762802 13.978663 18.315762
769 1 7 0.410000 8.536514 12.540609 18.315762
770 1 6 -0.820000 12.103900 13.661681 17.708938
771 1 7 0.410000 12.241999 14.652100 18.286292
772 1 7 0.410000 11.124088 13.461763 18.286292
773 1 6 -0.820000 15.722212 13.495156 17.682972
774 1 7 0.410000 16.484422 12.847827 18.258672
775 1 7 0.410000 16.078469 14.429544 18.258672
776 1 6 -0.820000 19.111516 13.500480 17.828344
777 1 7 0.410000 18.400174 12.797634 17.251199
778 1 7 0.410000 20.011270 13.064083 17.251199
779 1 6 -0.820000 1.798937 16.612648 17.701811
780 1 7 0.410000 0.996608 16.015765 17.507657
781 1 7 0.410000 2.629114 16.055148 17.507657
782 1 6 -0.820000 5.286645 16.683396 17.784290
783 1 7 0.410000 4.347913 16.338748 17.654898
784 1 7 0.410000 5.924477 15.913220 17.654898
785 1 6 -0.820000 8.712463 16.590323 17.817219
786 1 7 0.410000 7.862219 16.063935 17.506939
787 1 7 0.410000 9.492149 15.964152 17.506939
788 1 6 -0.820000 12.119491 16.631659 17.693136
789 1 7 0.410000 11.421441 17.347709 17.264699
790 1 7 0.410000 11.677058 15.734858 17.264699
791 1 6 -0.820000 15.655037 16.708926 17.786111
792 1 7 0.410000 14.707283 16.389924 17.431022
793 1 7 0.410000 16.271696 15.921695 17.431022
794 1 6 -0.820000 19.217023 16.680559 17.810183
795 1 7 0.410000 19.887340 15.938484 17.242488
796 1 7 0.410000 19.693236 17.559888 17.242488
797 1 6 -0.820000 1.733644 1.455699 20.747786
798 1 7 0.410000 0.785457 1.137987 21.038590
799 1 7 0.410000 2.349232 0.667630 21.038590
800 1 6 -0.820000 5.215353 1.543022 20.754860
801 1 7 0.410000 5.211600 2.543015 20.486253
802 1 7 0.410000 4.273794 1.206173 20.486253
803 1 6 -0.820000 8.783021 1.428646 20.699313
804 1 7 0.410000 9.301519 0.573567 20.164894
805 1 7 0.410000 9.416381 2.202503 20.164894
806 1 6 -0.820000 12.220626 1.522317 20.745929
807 1 7 0.410000 12.406837 2.504827 21.205232
808 1 7 0.410000 11.232234 1.370396 21.205232
809 1 6 -0.820000 15.740057 1.583618 20.824212
810 1 7 0.410000 16.654392 1.988577 20.483647
811 1 7 0.410000 15.053496 2.310691 20.483647
812 1 6 -0.820000 19.192250 1.452548 20.811347
813 1 7 0.410000 18.753987 2.351394 21.174367
814 1 7 0.410000 18.490883 0.739748 21.174367
815 1 6 -0.820000 1.716846 4.582521 20.794820
816 1 7 0.410000 2.544560 4.021372 20.317614
817 1 7 0.410000 1.970018 5.549942 20.317614
818 1 6 -0.820000 5.293685 4.552715 20.808540
819 1 7 0.410000 6.004284 5.256313 20.559711
820 1 7 0.410000 4.393470 4.988160 20.559711
821 1 6 -0.820000 8.670156 4.466083 20.820540
822 1 7 0.410000 7.836275 5.018028 21.308361
823 1 7 0.410000 8.427718 3.495916 21.308361
824 1 6 -0.820000 12.277306 4.543264 20.760157
825 1 7 0.410000 12.341144 5.541225 20.331487
826 1 7 0.410000 11.315135 4.270818 20.331487
827 1 6 -0.820000 15.739222 4.473027 20.763966
828 1 7 0.410000 14.812120 4.847835 21.184711
829 1 7 0.410000 15.694863 3.474011 21.184711
830 1 6 -0.820000 19.232034 4.543519 20.696991
831 1 7 0.410000 19.816932 5.354625 21.179373
832 1 7 0.410000 18.272355 4.824618 21.179373
833 1 6 -0.820000 1.778127 7.504421 20.812388
834 1 7 0.410000 0.913004 7.002861 21.018016
835 1 7 0.410000 2.539362 6.855945 21.018016
836 1 6 -0.820000 5.280989 7.472764 20.765983
837 1 7 0.410000 4.546859 8.151773 20.245934
838 1 7 0.410000 4.885503 6.554291 20.245934
839 1 6 -0.820000 8.750093 7.459083 20.759053
840 1 7 0.410000 8.424888 6.513440 20.786928
841 1 7 0.410000 9.750056 7.467670 20.786928
842 1 6 -0.820000 12.145580 7.477447 20.731104
843 1 7 0.410000 11.251511 7.925377 20.759134
844 1 7 0.410000 12.021269 6.485204 20.759134
845 1 6 -0.820000 15.625139 7.526041 20.820734
846 1 7 0.410000 14.809601 6.947337 20.320765
847 1 7 0.410000 16.442580 6.950029 20.320765
848 1 6 -0.820000 19.091082 7.622353 20.688460
849 1 7 0.410000 19.834087 8.291639 20.414018
850 1 7 0.410000 18.212415 8.099788 20.414018
851 1 6 -0.820000 1.758485 10.584680 20.821900
852 1 7 0.410000 0.763317 10.486492 21.204186
853 1 7 0.410000 2.182761 9.679147 21.204186
854 1 6 -0.820000 5.194954 10.630264 20.803625
855 1 7 0.410000 6.099739 10.204396 20.524749
856 1 7 0.410000 5.294893 11.625258 20.524749
857 1 6 -0.820000 8.785564 10.518663 20.797774
858 1 7 0.410000 8.064910 9.825368 21.149440
859 1 7 0.410000 9.679417 10.070304 21.149440
860 1 6 -0.820000 12.171236 10.536614 20.713627
861 1 7 0.410000 11.394518 9.906765 21.092785
862 1 7 0.410000 13.023958 10.014249 21.092785
863 1 6 -0.820000 15.771185 10.539875 20.825476
864 1 7 0.410000 16.637964 10.041183 20.295655
865 1 7 0.410000 15.952450 11.523309 20.295655
866 1 6 -0.820000 19.105956 10.509454 20.800480
867 1 7 0.410000 19.734496 9.731677 20.321922
868 1 7 0.410000 19.629755 11.361296 20.321922
869 1 6 -0.820000 1.797903 13.588823 20.830889
870 1 7 0.410000 2.424789 12.809713 21.013076
871 1 7 0.410000 2.323512 14.439550 21.013076
872 1 6 -0.820000 5.242898 13.617060 20.804904
873 1 7 0.410000 6.214834 13.381814 20.391002
874 1 7 0.410000 5.140733 14.611827 20.391002
875 1 6 -0.820000 8.630324 13.578442 20.740564
876 1 7 0.410000 7.933816 14.295990 20.940133
877 1 7 0.410000 8.185963 12.682594 20.940133
878 1 6 -0.820000 12.165415 13.580383 20.691378
879 1 7 0.410000 13.069317 13.152643 20.959073
880 1 7 0.410000 12.267412 14.575167 20.959073
881 1 6 -0.820000 15.761059 13.613002 20.781414
882 1 7 0.410000 14.832840 13.240966 20.588175
883 1 7 0.410000 16.421207 12.861867 20.588175
884 1 6 -0.820000 19.255842 13.579947 20.841963
885 1 7 0.410000 19.254559 12.579948 21.361991
886 1 7 0.410000 20.199085 13.912050 21.361991
887 1 6 -0.820000 1.673506 16.522375 20.700700
888 1 7 0.410000 2.673338 16.504061 21.181385
889 1 7 0.410000 1.357514 17.471137 21.181385
890 1 6 -0.820000 5.230910 16.544512 20.729549
891 1 7 0.410000 4.255985 16.321977 20.944038
892 1 7 0.410000 5.765675 15.699511 20.944038
893 1 6 -0.820000 8.648416 16.584570 20.736579
894 1 7 0.410000 7.649309 16.542311 21.227207
895 1 7 0.410000 9.021274 15.656682 21.227207
896 1 6 -0.820000 12.261179 16.639461 20.693182
897 1 7 0.410000 12.614863 17.574826 20.173303
898 1 7 0.410000 11.261414 16.661151 20.173303
899 1 6 -0.820000 15.734747 16.641313 20.861269
900 1 7 0.410000 16.718462 16.461578 21.361224
901 1 7 0.410000 15.576318 17.628683 21.361224
902 1 6 -0.820000 19.104952 16.579964 20.873539
903 1 7 0.410000 19.392610 15.622231 21.236061
904 1 7 0.410000 19.912039 17.170398 21.236061
905 1 6 -0.820000 1.830934 1.471916 23.755336
906 1 7 0.410000 2.599924 0.832656 23.222881
907 1 7 0.410000 2.177324 2.410007 23.222881
908 1 6 -0.820000 5.295792 1.557755 23.817083
909 1 7 0.410000 4.585810 0.853534 23.358611
910 1 7 0.410000 6.196388 1.123099 23.358611
911 1 6 -0.820000 8.689032 1.482520 23.716053
912 1 7 0.410000 8.308376 2.407236 23.529614
913 1 7 0.410000 7.944073 0.815410 23.529614
914 1 6 -0.820000 12.148642 1.437513 23.695433
915 1 7 0.410000 13.083834 1.083373 24.038135
916 1 7 0.410000 12.170819 2.437267 24.038135
917 1 6 -0.820000 15.757024 1.586736 23.687549
918 1 7 0.410000 14.839963 1.985483 23.113219
919 1 7 0.410000 15.686748 0.589209 23.113219
920 1 6 -0.820000 19.152011 1.442449 23.846269
921 1 7 0.410000 19.832223 0.709434 23.308187
922 1 7 0.410000 19.616386 2.328088 23.308187
923 1 6 -0.820000 1.730868 4.512172 23.815273
924 1 7 0.410000 1.219187 5.371347 24.013578
925 1 7 0.410000 1.091374 3.743376 24.013578
926 1 6 -0.820000 5.279707 4.519786 23.786802
927 1 7 0.410000 4.444155 5.069196 23.248170
928 1 7 0.410000 5.040215 3.548887 23.248170
929 1 6 -0.820000 8.783689 4.503568 23.869426
930 1 7 0.410000 9.652638 4.998471 24.007099
931 1 7 0.410000 8.027455 5.157869 24.007099
932 1 6 -0.820000 12.179708 4.535492 23.873254
933 1 7 0.410000 13.039968 4.025637 23.325581
934 1 7 0.410000 12.373671 5.516501 23.325581
935 1 6 -0.820000 15.640001 4.558236 23.854823
936 1 7 0.410000 15.064991 3.740089 24.201742
937 1 7 0.410000 16.603021 4.288806 24.201742
938 1 6 -0.820000 19.246900 4.487013 23.832623
939 1 7 0.410000 18.558927 5.212749 23.509019
940 1 7 0.410000 18.791975 3.596483 23.509019
941 1 6 -0.820000 1.730828 7.639283 23.724408
942 1 7 0.410000 0.778013 7.335731 24.192384
943 1 7 0.410000 2.334607 6.842131 24.192384
944 1 6 -0.820000 5.140651 7.550401 23.727156
945 1 7 0.410000 5.976515 8.099339 24.135634
946 1 7 0.410000 4.344500 8.155499 24.135634
947 1 6 -0.820000 8.802832 7.617835 23.809992
948 1 7 0.410000 9.570691 6.977217 24.249254
949 1 7 0.410000 9.150880 8.555312 24.249254
950 1 6 -0.820000 12.269286 7.589214 23.707759
951 1 7 0.410000 12.599108 6.645172 23.890990
952 1 7 0.410000 13.049410 8.214839 23.890990
953 1 6 -0.820000 15.605845 7.501185 23.846993
954 1 7 0.410000 15.001726 6.704291 23.275530
955 1 7 0.410000 16.558531 7.197227 23.275530
956 1 6 -0.820000 19.098904 7.507620 23.740230
957 1 7 0.410000 19.708291 8.300493 24.018929
958 1 7 0.410000 18.148254 7.817885 24.018929
959 1 6 -0.820000 1.734756 10.492172 23.861029
960 1 7 0.410000 1.394230 9.551937 23.920545
961 1 7 0.410000 2.734727 10.484511 23.920545
962 1 6 -0.820000 5.178388 10.498715 23.765848
963 1 7 0.410000 4.946579 9.525954 24.342192
964 1 7 0.410000 6.172788 10.604397 24.342192
965 1 6 -0.820000 8.749541 10.487123 23.874931
966 1 7 0.410000 9.255130 11.349897 23.780818
967 1 7 0.410000 7.767584 10.676226 23.780818
968 1 6 -0.820000 12.301000 10.580830 23.758091
969 1 7 0.410000 11.391137 10.165921 23.323402
970 1 7 0.410000 12.995452 9.861292 23.323402
971 1 6 -0.820000 15.640730 10.473248 23.837704
972 1 7 0.410000 14.704708 10.825190 23.263658
973 1 7 0.410000 15.620903 9.473445 23.263658
974 1 6 -0.820000 19.230967 10.617037 23.746504
975 1 7 0.410000 19.857219 11.396658 23.581898
976 1 7 0.410000 18.287190 10.947620 23.581898
977 1 6 -0.820000 1.678351 13.645829 23.772925
978 1 7 0.410000 1.947357 12.682690 23.347762
979 1 7 0.410000 2.496750 14.220479 23.347762
980 1 6 -0.820000 5.142620 13.645238 23.771536
981 1 7 0.410000 4.366526 14.275855 23.928451
982 1 7 0.410000 4.806746 12.703331 23.928451
983 1 6 -0.820000 8.625048 13.676674 23.783077
984 1 7 0.410000 9.479061 14.196926 23.628871
985 1 7 0.410000 7.849892 14.308444 23.628871
986 1 6 -0.820000 12.253992 13.528221 23.751395
987 1 7 0.410000 12.977778 12.838196 23.320232
988 1 7 0.410000 12.663310 14.440612 23.320232
989 1 6 -0.820000 15.614895 13.563604 23.857897
990 1 7 0.410000 16.157421 12.723565 23.502992
991 1 7 0.410000 16.226066 14.355102 23.502992
992 1 6 -0.820000 19.271411 13.589241 23.779505
993 1 7 0.410000 20.261639 13.728704 23.709749
994 1 7 0.410000 18.809868 14.476358 23.709749
995 1 6 -0.820000 1.788750 16.525785 23.800491
996 1 7 0.410000 2.665962 16.045682 23.637761
997 1 7 0.410000 1.949012 17.512860 23.637761
998 1 6 -0.820000 5.146014 16.642184 23.741299
999 1 7 0.410000 4.840464 15.690008 23.999801
1000 1 7 0.410000 6.145585 16.671480 23.999801
1001 1 6 -0.820000 8.686976 16.518471 23.854007
1002 1 7 0.410000 7.734920 16.824393 23.847299
1003 1 7 0.410000 8.715881 15.518889 23.847299
1004 1 6 -0.820000 12.299339 16.699581 23.695008
1005 1 7 0.410000 12.208176 15.703745 24.132119
1006 1 7 0.410000 13.268615 16.945557 24.132119
1007 1 6 -0.820000 15.725882 16.700558 23.708556
1008 1 7 0.410000 15.450098 15.739338 23.142335
1009 1 7 0.410000 16.724058 16.760931 23.142335
1010 1 6 -0.820000 19.090113 16.665703 23.753266
1011 1 7 0.410000 18.097372 16.785968 23.516519
1012 1 7 0.410000 19.307619 15.689644 23.516519
1013 1 6 -0.820000 1.779146 1.599765 26.754403
1014 1 7 0.410000 2.421605 0.833444 26.495778
1015 1 7 0.410000 2.287505 2.460910 26.495778
1016 1 6 -0.820000 5.209607 1.539912 26.729922
1017 1 7 0.410000 5.449725 2.510656 26.154900
1018 1 7 0.410000 4.214339 1.442737 26.154900
1019 1 6 -0.820000 8.694064 1.522335 26.732355
1020 1 7 0.410000 8.065160 2.299817 26.923577
1021 1 7 0.410000 8.170663 0.670248 26.923577
1022 1 6 -0.820000 12.160449 1.593296 26.778240
1023 1 7 0.410000 12.344152 2.576278 26.317247
1024 1 7 0.410000 11.172447 1.438853 26.317247
1025 1 6 -0.820000 15.769736 1.499022 26.697558
1026 1 7 0.410000 15.956423 0.516603 26.221101
1027 1 7 0.410000 16.633751 2.002488 26.221101
1028 1 6 -0.820000 19.146152 1.422988 26.788434
1029 1 7 0.410000 20.143888 1.355746 26.324262
1030 1 7 0.410000 18.876990 2.386083 26.324262
1031 1 6 -0.820000 1.828798 4.557540 26.838739
1032 1 7 0.410000 1.045290 3.936159 27.237557
1033 1 7 0.410000 2.675800 4.025950 27.237557
1034 1 6 -0.820000 5.157775 4.588075 26.685257
1035 1 7 0.410000 4.580099 3.771809 27.108827
1036 1 7 0.410000 6.119911 4.315504 27.108827
1037 1 6 -0.820000 8.726996 4.552390 26.697243
1038 1 7 0.410000 7.892055 5.102730 26.695774
1039 1 7 0.410000 8.486423 3.581759 26.695774
1040 1 6 -0.820000 12.208472 4.583833 26.844668
1041 1 7 0.410000 12.680789 5.465262 26.744973
1042 1 7 0.410000 11.220018 4.735348 26.744973
1043 1 6 -0.820000 15.679995 4.566022 26.748903
1044 1 7 0.410000 16.668570 4.415290 26.181950
1045 1 7 0.410000 15.492602 5.548307 26.181950
1046 1 6 -0.820000 19.113059 4.623253 26.766524
1047 1 7 0.410000 20.111576 4.677705 26.963506
1048 1 7 0.410000 18.728902 5.546521 26.963506
1049 1 6 -0.820000 1.673936 7.482931 26.744532
1050 1 7 0.410000 2.026179 6.547023 27.219959
1051 1 7 0.410000 2.438919 8.126983 27.219959
1052 1 6 -0.820000 5.308985 7.619187 26.730121
1053 1 7 0.410000 5.202470 6.624876 26.548807
1054 1 7 0.410000 6.281941 7.850180 26.548807
1055 1 6 -0.820000 8.677232 7.556696 26.780515
1056 1 7 0.410000 8.573156 8.551265 26.573406
1057 1 7 0.410000 7.774225 7.127068 26.573406
1058 1 6 -0.820000 12.235080 7.594127 26.801028
1059 1 7 0.410000 13.165982 7.228857 26.576340
1060 1 7 0.410000 12.269180 8.593545 26.576340
1061 1 6 -0.820000 15.595675 7.459092 26.808291
1062 1 7 0.410000 15.140171 6.568859 26.338800
1063 1 7 0.410000 16.586827 7.326363 26.338800
1064 1 6 -0.820000 19.159984 7.577798 26.779608
1065 1 7 0.410000 19.004309 6.589990 27.339123
1066 1 7 0.410000 20.143194 7.760275 27.339123
1067 1 6 -0.820000 1.739922 10.630938 26.816998
1068 1 7 0.410000 0.948259 11.241896 27.072541
1069 1 7 0.410000 1.427773 9.680905 27.072541
1070 1 6 -0.820000 5.217921 10.566850 26.720805
1071 1 7 0.410000 4.936630 9.607228 27.254100
1072 1 7 0.410000 6.216427 10.621499 27.254100
1073 1 6 -0.820000 8.763507 10.642155 26.875075
1074 1 7 0.410000 8.896787 11.633234 27.294608
1075 1 7 0.410000 7.784678 10.437475 27.294608
1076 1 6 -0.820000 12.167157 10.563295 26.733494
1077 1 7 0.410000 11.600523 11.387265 27.063433
1078 1 7 0.410000 11.579171 9.754423 27.063433
1079 1 6 -0.820000 15.666830 10.593075 26.729654
1080 1 7 0.410000 16.640312 10.364312 27.216550
1081 1 7 0.410000 15.558038 11.587140 27.216550
1082 1 6 -0.820000 19.192204 10.532543 26.832624
1083 1 7 0.410000 18.369470 9.964116 26.779284
1084 1 7 0.410000 20.002354 9.946320 26.779284
1085 1 6 -0.820000 1.705041 13.494635 26.869047
1086 1 7 0.410000 0.908775 12.889689 26.749078
1087 1 7 0.410000 2.540801 12.945540 26.749078
1088 1 6 -0.820000 5.200579 13.500108 26.778979
1089 1 7 0.410000 6.192927 13.376632 26.302970
1090 1 7 0.410000 4.986232 14.476866 26.302970
1091 1 6 -0.820000 8.724005 13.659434 26.766186
1092 1 7 0.410000 9.716442 13.536683 26.194582
1093 1 7 0.410000 8.508945 14.636035 26.194582
1094 1 6 -0.820000 12.176521 13.570116 26.794056
1095 1 7 0.410000 11.911959 14.534485 26.604561
1096 1 7 0.410000 11.355480 12.999246 26.604561
1097 1 6 -0.820000 15.690851 13.642881 26.735944
1098 1 7 0.410000 16.544968 14.162961 26.212920
1099 1 7 0.410000 14.915822 14.274807 26.212920
1100 1 6 -0.820000 19.271683 13.568781 26.838979
1101 1 7 0.410000 18.348905 13.954112 26.622898
1102 1 7 0.410000 19.215961 12.570334 26.622898
1103 1 6 -0.820000 1.683145 16.611825 26.780016
1104 1 7 0.410000 2.304645 17.395238 27.217949
1105 1 7 0.410000 0.737375 16.936663 27.217949
1106 1 6 -0.820000 5.224749 16.601398 26.801252
1107 1 7 0.410000 4.468291 15.947356 27.310709
1108 1 7 0.410000 6.093528 16.106198 27.310709
1109 1 6 -0.820000 8.649167 16.708123 26.827864
1110 1 7 0.410000 7.850643 17.310086 27.322266
1111 1 7 0.410000 8.347785 15.754620 27.322266
1112 1 6 -0.820000 12.209801 16.651748 26.739958
1113 1 7 0.410000 13.066380 16.135732 27.164890
1114 1 7 0.410000 12.410801 17.631339 27.164890
1115 1 6 -0.820000 15.785980 16.626740 26.839351
1116 1 7 0.410000 16.230329 15.730887 26.305189
1117 1 7 0.410000 16.482497 17.344280 26.305189
1118 1 6 -0.820000 19.171585 16.703414 26.836581
1119 1 7 0.410000 19.874773 15.992410 26.565987
1120 1 7 0.410000 19.607549 17.603378 26.565987
1121 1 6 -0.820000 1.760038 1.444102 29.805805
1122 1 7 0.410000 1.558445 0.464633 29.320606
1123 1 7 0.410000 2.750691 1.580508 29.320606
1124 1 6 -0.820000 5.266145 1.416314 29.869641
1125 1 7 0.410000 5.527873 2.381456 29.938177
1126 1 7 0.410000 4.268957 1.341381 29.938177
1127 1 6 -0.820000 8.646953 1.548100 29.762075
1128 1 7 0.410000 9.344806 0.831859 29.485588
1129 1 7 0.410000 9.089632 2.444780 29.485588
1130 1 6 -0.820000 12.250501 1.422456 29.707616
1131 1 7 0.410000 11.909990 2.362697 30.221965
1132 1 7 0.410000 11.477524 0.788022 30.221965
1133 1 6 -0.820000 15.695095 1.472751 29.714636
1134 1 7 0.410000 16.693089 1.536058 30.197542
1135 1 7 0.410000 15.302763 2.392574 30.197542
1136 1 6 -0.820000 19.231065 1.554185 29.808662
1137 1 7 0.410000 19.487485 0.587620 29.440425
1138 1 7 0.410000 20.056889 2.118112 29.440425
1139 1 6 -0.820000 1.692637 4.541617 29.724973
1140 1 7 0.410000 2.595126 4.972330 30.276687
1141 1 7 0.410000 0.985742 5.248936 30.276687
1142 1 6 -0.820000 5.171456 4.570998 29.743408
1143 1 7 0.410000 4.226883 4.899301 29.509792
1144 1 7 0.410000 5.176764 3.571012 29.509792
1145 1 6 -0.820000 8.671358 4.454375 29.815324
1146 1 7 0.410000 7.681200 4.594327 29.743540
1147 1 7 0.410000 8.869442 3.474190 29.743540
1148 1 6 -0.820000 12.294255 4.590923 29.738091
1149 1 7 0.410000 11.541703 5.249456 29.175324
1150 1 7 0.410000 11.924215 3.661907 29.175324
1151 1 6 -0.820000 15.678475 4.481289 29.775816
1152 1 7 0.410000 15.369301 5.432294 29.637235
1153 1 7 0.410000 14.884904 3.872812 29.637235
1154 1 6 -0.820000 19.215901 4.457455 29.803135
1155 1 7 0.410000 18.817536 3.540228 30.379846
1156 1 7 0.410000 20.213458 4.387593 30.379846
1157 1 6 -0.820000 1.749542 7.577589 29.690498
1158 1 7 0.410000 0.752043 7.506901 29.125240
1159 1 7 0.410000 2.148667 6.660692 29.125240
1160 1 6 -0.820000 5.284153 7.451036 29.790071
1161 1 7 0.410000 6.269736 7.620229 30.108848
1162 1 7 0.410000 4.796128 8.323866 30.108848
1163 1 6 -0.820000 8.792347 7.545490 29.719891
1164 1 7 0.410000 9.717728 7.924527 30.240484
1165 1 7 0.410000 8.126542 8.291616 30.240484
1166 1 6 -0.820000 12.284921 7.467892 29.794827
1167 1 7 0.410000 11.614751 6.725684 29.225684
1168 1 7 0.410000 13.208063 7.083433 29.225684
1169 1 6 -0.820000 15.772646 7.485013 29.856449
1170 1 7 0.410000 15.623992 8.473902 29.577144
1171 1 7 0.410000 14.889854 7.015250 29.577144
1172 1 6 -0.820000 19.156066 7.549077 29.867322
1173 1 7 0.410000 20.085634 7.917725 29.608572
1174 1 7 0.410000 18.498660 8.302614 29.608572
1175 1 6 -0.820000 1.645187 10.583592 29.701460
1176 1 7 0.410000 2.518595 11.070580 30.265259
1177 1 7 0.410000 0.894928 11.244737 30.265259
1178 1 6 -0.820000 5.238660 10.568782 29.867712
1179 1 7 0.410000 6.187792 10.253904 29.982943
1180 1 7 0.410000 5.219175 11.568593 29.982943
1181 1 6 -0.820000 8.639196 10.502499 29.771783
1182 1 7 0.410000 8.025181 11.291793 30.303369
1183 1 7 0.410000 8.099696 9.660514 30.303369
1184 1 6 -0.820000 12.261487 10.583556 29.831457
1185 1 7 0.410000 12.114659 11.572718 29.377814
1186 1 7 0.410000 11.377829 10.115423 29.377814
1187 1 6 -0.820000 15.755398 10.573056 29.697348
1188 1 7 0.410000 15.863347 9.578900 30.226906
1189 1 7 0.410000 16.656724 11.006198 30.226906
1190 1 6 -0.820000 19.141387 10.519609 29.732157
1191 1 7 0.410000 18.640591 11.385175 29.154959
1192 1 7 0.410000 18.492240 9.758947 29.154959
1193 1 6 -0.820000 1.703723 13.634577 29.682287
1194 1 7 0.410000 1.714037 12.634630 29.141857
1195 1 7 0.410000 2.643050 13.977597 29.141857
1196 1 6 -0.820000 5.153645 13.551361 29.761083
1197 1 7 0.410000 4.346400 12.961145 29.407555
1198 1 7 0.410000 5.979176 12.987005 29.407555
1199 1 6 -0.820000 8.678862 13.513483 29.863226
1200 1 7 0.410000 7.896487 14.136291 29.482432
1201 1 7 0.410000 8.352445 12.568257 29.482432
1202 1 6 -0.820000 12.130047 13.520637 29.829547
1203 1 7 0.410000 11.843205 12.562659 30.120802
1204 1 7 0.410000 13.128852 13.569505 30.120802
1205 1 6 -0.820000 15.684166 13.597504 29.812819
1206 1 7 0.410000 15.279133 14.511806 30.390105
1207 1 7 0.410000 14.957150 12.910883 30.390105
1208 1 6 -0.820000 19.251294 13.506374 29.769350
1209 1 7 0.410000 19.570597 12.558722 30.041443
1210 1 7 0.410000 20.038328 14.123284 30.041443
1211 1 6 -0.820000 1.655685 16.619530 29.781097
1212 1 7 0.410000 1.177569 15.741233 30.247876
1213 1 7 0.410000 2.643120 16.461503 30.247876
1214 1 6 -0.820000 5.234068 16.533248 29.721080
1215 1 7 0.410000 4.814587 15.625484 30.033323
1216 1 7 0.410000 6.229742 16.440324 30.033323
1217 1 6 -0.820000 8.778405 16.600686 29.782650
1218 1 7 0.410000 7.837008 16.263387 29.987535
1219 1 7 0.410000 9.410197 15.825548 29.987535
1220 1 6 -0.820000 12.264716 16.654656 29.759190
1221 1 7 0.410000 13.123570 16.142436 29.182031
1222 1 7 0.410000 12.461379 17.635127 29.182031
1223 1 6 -0.820000 15.599058 16.578906 29.692752
1224 1 7 0.410000 16.436304 17.125732 29.462067
1225 1 7 0.410000 14.804436 17.186011 29.462067
1226 1 6 -0.820000 19.263422 16.516347 29.761773
1227 1 7 0.410000 19.933783 15.774312 29.187267
1228 1 7 0.410000 19.739584 17.395704 29.187267
1229 1 6 -0.820000 1.772509 1.494072 32.878571
1230 1 7 0.410000 0.780054 1.616675 32.456753
1231 1 7 0.410000 1.987716 0.517504 32.456753
1232 1 6 -0.820000 5.205129 1.546546 32.812359
1233 1 7 0.410000 4.554528 0.787126 32.337845
1234 1 7 0.410000 6.137976 1.186274 32.337845
1235 1 6 -0.820000 8.652361 1.517452 32.785769
1236 1 7 0.410000 9.110917 0.628786 33.354648
1237 1 7 0.410000 9.337367 2.245989 33.354648
1238 1 6 -0.820000 12.107880 1.469673 32.814700
1239 1 7 0.410000 11.482166 0.689621 32.699632
1240 1 7 0.410000 13.051885 1.139740 32.699632
1241 1 6 -0.820000 15.639502 1.479232 32.735130
1242 1 7 0.410000 16.614911 1.699635 32.164866
1243 1 7 0.410000 15.106586 2.325400 32.164866
1244 1 6 -0.820000 19.238562 1.493848 32.833211
1245 1 7 0.410000 20.231970 1.379212 32.889877
1246 1 7 0.410000 19.015527 2.468658 32.889877
1247 1 6 -0.820000 1.663513 4.436715 32.799557
1248 1 7 0.410000 1.979957 3.488104 32.973398
1249 1 7 0.410000 2.452403 5.051249 32.973398
1250 1 6 -0.820000 5.210453 4.476868 32.723454
1251 1 7 0.410000 6.181620 4.238468 32.923948
1252 1 7 0.410000 5.111517 5.471962 32.923948
1253 1 6 -0.820000 8.674519 4.593157 32.826303
1254 1 7 0.410000 7.807881 5.092094 32.493081
1255 1 7 0.410000 8.492976 3.609774 32.493081
1256 1 6 -0.820000 12.167466 4.490353 32.708652
1257 1 7 0.410000 12.218782 3.491670 33.276481
1258 1 7 0.410000 13.091936 4.871608 33.276481
1259 1 6 -0.820000 15.602192 4.619704 32.855943
1260 1 7 0.410000 16.600397 4.679585 32.445149
1261 1 7 0.410000 15.213020 5.540869 32.445149
1262 1 6 -0.820000 19.175791 4.624458 32.868317
1263 1 7 0.410000 19.296765 3.631802 32.305507
1264 1 7 0.410000 20.071360 5.069379 32.305507
1265 1 6 -0.820000 1.726598 7.479844 32.755292
1266 1 7 0.410000 2.326387 6.679685 32.850914
1267 1 7 0.410000 2.281083 8.312038 32.850914
1268 1 6 -0.820000 5.190147 7.591515 32.841155
1269 1 7 0.410000 6.186965 7.671224 32.620592
1270 1 7 0.410000 4.782744 8.504764 32.620592
1271 1 6 -0.820000 8.728124 7.476819 32.728572
1272 1 7 0.410000 8.411378 8.425329 32.268602
1273 1 7 0.410000 7.939428 6.862035 32.268602
1274 1 6 -0.820000 12.272760 7.468493 32.824917
1275 1 7 0.410000 12.033576 8.439467 33.398396
1276 1 7 0.410000 11.437033 6.919348 33.398396
1277 1 6 -0.820000 15.710584 7.624724 32.717633
1278 1 7 0.410000 16.346335 6.852830 32.147782
1279 1 7 0.410000 16.226434 8.481403 32.147782
1280 1 6 -0.820000 19.172546 7.623895 32.746593
1281 1 7 0.410000 20.113473 7.962503 32.802132
1282 1 7 0.410000 18.539676 8.398154 32.802132
1283 1 6 -0.820000 1.835749 10.493463 32.879914
1284 1 7 0.410000 0.950165 10.028984 33.456648
1285 1 7 0.410000 2.568844 9.813337 33.456648
1286 1 6 -0.820000 5.170903 10.653025 32.790416
1287 1 7 0.410000 5.871189 9.939163 33.183892
1288 1 7 0.410000 5.610528 11.551206 33.183892
1289 1 6 -0.820000 8.688519 10.522312 32.782563
1290 1 7 0.410000 7.862271 9.959005 33.117829
1291 1 7 0.410000 9.495013 9.931071 33.117829
1292 1 6 -0.820000 12.197231 10.637946 32.862866
1293 1 7 0.410000 11.216553 10.833571 33.160100
1294 1 7 0.410000 12.339666 9.648142 33.160100
1295 1 6 -0.820000 15.634255 10.499185 32.732155
1296 1 7 0.410000 16.613201 10.703304 32.456739
1297 1 7 0.410000 15.115512 11.354115 32.456739
1298 1 6 -0.820000 19.107149 10.535973 32.755968
1299 1 7 0.410000 20.015479 10.117719 32.758502
1300 1 7 0.410000 19.198727 11.531771 32.758502
1301 1 6 -0.820000 1.780303 13.541465 32.844318
1302 1 7 0.410000 2.699383 13.935535 32.395563
1303 1 7 0.410000 1.102426 14.276641 32.395563
1304 1 6 -0.820000 5.163647 13.648995 32.713853
1305 1 7 0.410000 5.579576 12.739598 32.756199
1306 1 7 0.410000 5.882406 14.344254 32.756199
1307 1 6 -0.820000 8.725094 13.618362 32.691746
1308 1 7 0.410000 9.401436 14.354950 32.217712
1309 1 7 0.410000 7.805193 14.010514 32.217712
1310 1 6 -0.820000 12.236976 13.642868 32.762478
1311 1 7 0.410000 13.167912 13.277684 33.335913
1312 1 7 0.410000 12.270985 14.642289 33.335913
1313 1 6 -0.820000 15.591828 13.591147 32.754640
1314 1 7 0.410000 15.378554 12.614154 32.254473
1315 1 7 0.410000 16.584040 13.715712 32.254473
1316 1 6 -0.820000 19.173307 13.587571 32.681322
1317 1 7 0.410000 18.583500 12.780027 32.724274
1318 1 7 0.410000 20.131264 13.300656 32.724274
1319 1 6 -0.820000 1.698281 16.705496 32.683429
1320 1 7 0.410000 2.546344 16.175600 32.170600
1321 1 7 0.410000 1.915205 17.681684 32.170600
1322 1 6 -0.820000 5.311955 16.531403 32.699263
1323 1 7 0.410000 5.331709 17.531208 33.238618
1324 1 7 0.410000 4.362738 16.216780 33.238618
1325 1 6 -0.820000 8.779710 16.563465 32.759379
1326 1 7 0.410000 7.796253 16.744609 33.080814
1327 1 7 0.410000 8.936723 15.575868 33.080814
1328 1 6 -0.820000 12.301380 16.555171 32.816808
1329 1 7 0.410000 13.244005 16.221318 32.341879
1330 1 7 0.410000 12.301953 17.555171 32.341879
1331 1 6 -0.820000 15.741917 16.528700 32.755853
1332 1 7 0.410000 15.157491 15.717253 32.955227
1333 1 7 0.410000 16.701759 16.248159 32.955227
1334 1 6 -0.820000 19.110943 16.609972 32.766782
1335 1 7 0.410000 19.849875 15.936191 32.534636
1336 1 7 0.410000 19.499899 17.531228 32.534636
1337 1 8 2.000000 1.728048 7.505336 8.680709
1338 1 9 -1.000000 1.739922 10.630938 26.816998
1339 1 9 -1.000000 12.268660 4.444282 14.713185

Bonds

1 1 257 258
2 1 257 259
3 1 260 261
4 1 260 262
5 1 263 264
6 1 263 265
7 1 266 267
8 1 266 268
9 1 269 270
10 1 269 271
11 1 272 273
12 1 272 274
13 1 275 276
14 1 275 277
15 1 278 279
16 1 278 280
17 1 281 282
18 1 281 283
19 1 284 285
20 1 284 286
21 1 287 288
22 1 287 289
23 1 290 291
24 1 290 292
25 1 293 294
26 1 293 295
27 1 296 297
28 1 296 298
29 1 299 300
30 1 299 301
31 1 302 303
32 1 302 304
33 1 305 306
34 1 305 307
35 1 308 309
36 1 308 310
37 1 311 312
38 1 311 313
39 1 314 315
40 1 314 316
41 1 317 318
42 1 317 319
43 1 320 321
44 1 320 322
45 1 323 324
46 1 323 325
47 1 326 327
48 1 326 328
49 1 329 330
50 1 329 331
51 1 332 333
52 1 332 334
53 1 335 336
54 1 335 337
55 1 338 339
56 1 338 340
57 1 341 342
58 1 341 343
59 1 344 345
60 1 344 346
61 1 347 348
62 1 347 349
63 1 350 351
64 1 350 352
65 1 353 354
66 1 353 355
67 1 356 357
68 1 356 358
69 1 359 360
70 1 359 361
71 1 362 363
72 1 362 364
73 1 365 366
74 1 365 367
75 1 368 369
76 1 368 370
77 1 371 372
78 1 371 373
79 1 374 375
80 1 374 376
81 1 377 378
82 1 377 379
83 1 380 381
84 1 380 382
85 1 383 384
86 1 383 385
87 1 386 387
88 1 386 388
89 1 389 390
90 1 389 391
91 1 392 393
92 1 392 394
93 1 395 396
94 1 395 397
95 1 398 399
96 1 398 400
97 1 401 402
98 1 401 403
99 1 404 405
100 1 404 406
101 1 407 408
102 1 407 409
103 1 410 411
104 1 410 412
105 1 413 414
106 1 413 415
107 1 416 417
108 1 416 418
109 1 419 420
110 1 419 421
111 1 422 423
112 1 422 424
113 1 425 426
114 1 425 427
115 1 428 429
116 1 428 430
117 1 431 432
118 1 431 433
119 1 434 435
120 1 434 436
121 1 437 438
122 1 437 439
123 1 440 441
124 1 440 442
125 1 443 444
126 1 443 445
127 1 446 447
128 1 446 448
129 1 449 450
130 1 449 451
131 1 452 453
132 1 452 454
133 1 455 456
134 1 455 457
135 1 458 459
136 1 458 460
137 1 461 462
138 1 461 463
139 1 464 465
140 1 464 466
141 1 467 468
142 1 467 469
143 1 470 471
144 1 470 472
145 1 473 474
146 1 473 475
147 1 476 477
148 1 476 478
149 1 479 480
150 1 479 481
151 1 482 483
152 1 482 484
153 1 485 486
154 1 485 487
155 1 488 489
156 1 488 490
157 1 491 492
158 1 491 493
159 1 494 495
160 1 494 496
161 1 497 498
162 1 497 499
163 1 500 501
164 1 500 502
165 1 503 504
166 1 503 505
167 1 506 507
168 1 506 508
169 1 509 510
170 1 509 511
171 1 512 513
172 1 512 514
173 1 515 516
174 1 515 517
175 1 518 519
176 1 518 520
177 1 521 522
178 1 521 523
179 1 524 525
180 1 524 526
181 1 527 528
182 1 527 529
183 1 530 531
184 1 530 532
185 1 533 534
186 1 533 535
187 1 536 537
188 1 536 538
189 1 539 540
190 1 539 541
191 1 542 543
192 1 542 544
193 1 545 546
194 1 545 547
195 1 548 549
196 1 548 550
197 1 551 552
198 1 551 553
199 1 554 555
200 1 554 556
201 1 557 558
202 1 557 559
203 1 560 561
204 1 560 562
205 1 563 564
206 1 563 565
207 1 566 567
208 1 566 568
209 1 569 570
210 1 569 571
211 1 572 573
212 1 572 574
213 1 575 576
214 1 575 577
215 1 578 579
216 1 578 580
217 1 581 582
218 1 581 583
219 1 584 585
220 1 584 586
221 1 587 588
222 1 587 589
223 1 590 591
224 1 590 592
225 1 593 594
226 1 593 595
227 1 596 597
228 1 596 598
229 1 599 600
230 1 599 601
231 1 602 603
232 1 602 604
233 1 605 606
234 1 605 607
235 1 608 609
236 1 608 610
237 1 611 612
238 1 611 613
239 1 614 615
240 1 614 616
241 1 617 618
242 1 617 619
243 1 620 621
244 1 620 622
245 1 623 624
246 1 623 625
247 1 626 627
248 1 626 628
249 1 629 630
250 1 629 631
251 1 632 633
252 1 632 634
253 1 635 636
254 1 635 637
255 1 638 639
256 1 638 640
257 1 641 642
258 1 641 643
259 1 644 645
260 1 644 646
261 1 647 648
262 1 647 649
263 1 650 651
264 1 650 652
265 1 653 654
266 1 653 655
267 1 656 657
268 1 656 658
269 1 659 660
270 1 659 661
271 1 662 663
272 1 662 664
273 1 665 666
274 1 665 667
275 1 668 669
276 1 668 670
277 1 671 672
278 1 671 673
279 1 674 675
280 1 674 676
281 1 677 678
282 1 677 679
283 1 680 681
284 1 680 682
285 1 683 684
286 1 683 685
287 1 686 687
288 1 686 688
289 1 689 690
290 1 689 691
291 1 692 693
292 1 692 694
293 1 695 696
294 1 695 697
295 1 698 699
296 1 698 700
297 1 701 702
298 1 701 703
299 1 704 705
300 1 704 706
301 1 707 708
302 1 707 709
303 1 710 711
304 1 710 712
305 1 713 714
306 1 713 715
307 1 716 717
308 1 716 718
309 1 719 720
310 1 719 721
311 1 722 723
312 1 722 724
313 1 725 726
314 1 725 727
315 1 728 729
316 1 728 730
317 1 731 732
318 1 731 733
319 1 734 735
320 1 734 736
321 1 737 738
322 1 737 739
323 1 740 741
324 1 740 742
325 1 743 744
326 1 743 745
327 1 746 747
328 1 746 748
329 1 749 750
330 1 749 751
331 1 752 753
332 1 752 754
333 1 755 756
334 1 755 757
335 1 758 759
336 1 758 760
337 1 761 762
338 1 761 763
339 1 764 765
340 1 764 766
341 1 767 768
342 1 767 769
343 1 770 771
344 1 770 772
345 1 773 774
346 1 773 775
347 1 776 777
348 1 776 778
349 1 779 780
350 1 779 781
351 1 782 783
352 1 782 784
353 1 785 786
354 1 785 787
355 1 788 789
356 1 788 790
357 1 791 792
358 1 791 793
359 1 794 795
360 1 794 796
361 1 797 798
362 1 797 799
363 1 800 801
364 1 800 802
365 1 803 804
366 1 803 805
367 1 806 807
368 1 806 808
369 1 809 810
370 1 809 811
371 1 812 813
372 1 812 814
373 1 815 816
374 1 815 817
375 1 818 819
376 1 818 820
377 1 821 822
378 1 821 823
379 1 824 825
380 1 824 826
381 1 827 828
382 1 827 829
383 1 830 831
384 1 830 832
385 1 833 834
386 1 833 835
387 1 836 837
388 1 836 838
389 1 839 840
390 1 839 841
391 1 842 843
392 1 842 844
393 1 845 846
394 1 845 847
395 1 848 849
396 1 848 850
397 1 851 852
398 1 851 853
399 1 854 855
400 1 854 856
401 1 857 858
402 1 857 859
403 1 860 861
404 1 860 862
405 1 863 864
406 1 863 865
407 1 866 867
408 1 866 868
409 1 869 870
410 1 869 871
411 1 872 873
412 1 872 874
413 1 875 876
414 1 875 877
415 1 878 879
416 1 878 880
417 1 881 882
418 1 881 883
419 1 884 885
420 1 884 886
421 1 887 888
422 1 887 889
423 1 890 891
424 1 890 892
425 1 893 894
426 1 893 895
427 1 896 897
428 1 896 898
429 1 899 900
430 1 899 901
431 1 902 903
432 1 902 904
433 1 905 906
434 1 905 907
435 1 908 909
436 1 908 910
437 1 911 912
438 1 911 913
439 1 914 915
440 1 914 916
441 1 917 918
442 1 917 919
443 1 920 921
444 1 920 922
445 1 923 924
446 1 923 925
447 1 926 927
448 1 926 928
449 1 929 930
450 1 929 931
451 1 932 933
452 1 932 934
453 1 935 936
454 1 935 937
455 1 938 939
456 1 938 940
457 1 941 942
458 1 941 943
459 1 944 945
460 1 944 946
461 1 947 948
462 1 947 949
463 1 950 951
464 1 950 952
465 1 953 954
466 1 953 955
467 1 956 957
468 1 956 958
469 1 959 960
470 1 959 961
471 1 962 963
472 1 962 964
473 1 965 966
474 1 965 967
475 1 968 969
476 1 968 970
477 1 971 972
478 1 971 973
479 1 974 975
480 1 974 976
481 1 977 978
482 1 977 979
483 1 980 981
484 1 980 982
485 1 983 984
486 1 983 985
487 1 986 987
488 1 986 988
489 1 989 990
490 1 989 991
491 1 992 993
492 1 992 994
493 1 995 996
494 1 995 997
495 1 998 999
496 1 998 1000
497 1 1001 1002
498 1 1001 1003
499 1 1004 1005
500 1 1004 1006
501 1 1007 1008
502 1 1007 1009
503 1 1010 1011
504 1 1010 1012
505 1 1013 1014
506 1 1013 1015
507 1 1016 1017
508 1 1016 1018
509 1 1019 1020
510 1 1019 1021
511 1 1022 1023
512 1 1022 1024
513 1 1025 1026
514 1 1025 1027
515 1 1028 1029
516 1 1028 1030
517 1 1031 1032
518 1 1031 1033
519 1 1034 1035
520 1 1034 1036
521 1 1037 1038
522 1 1037 1039
523 1 1040 1041
524 1 1040 1042
525 1 1043 1044
526 1 1043 1045
527 1 1046 1047
528 1 1046 1048
529 1 1049 1050
530 1 1049 1051
531 1 1052 1053
532 1 1052 1054
533 1 1055 1056
534 1 1055 1057
535 1 1058 1059
536 1 1058 1060
537 1 1061 1062
538 1 1061 1063
539 1 1064 1065
540 1 1064 1066
541 1 1067 1068
542 1 1067 1069
543 1 1070 1071
544 1 1070 1072
545 1 1073 1074
546 1 1073 1075
547 1 1076 1077
548 1 1076 1078
549 1 1079 1080
550 1 1079 1081
551 1 1082 1083
552 1 1082 1084
553 1 1085 1086
554 1 1085 1087
555 1 1088 1089
556 1 1088 1090
557 1 1091 1092
558 1 1091 1093
559 1 1094 1095
560 1 1094 1096
561 1 1097 1098
562 1 1097 1099
563 1 1100 1101
564 1 1100 1102
565 1 1103 1104
566 1 1103 1105
567 1 1106 1107
568 1 1106 1108
569 1 1109 1110
570 1 1109 1111
571 1 1112 1113
572 1 1112 1114
573 1 1115 1116
574 1 1115 1117
575 1 1118 1119
576 1 1118 1120
577 1 1121 1122
578 1 1121 1123
579 1 1124 1125
580 1 1124 1126
581 1 1127 1128
582 1 1127 1129
583 1 1130 1131
584 1 1130 1132
585 1 1133 1134
586 1 1133 1135
587 1 1136 1137
588 1 1136 1138
589 1 1139 1140
590 1 1139 1141
591 1 1142 1143
592 1 1142 1144
593 1 1145 1146
594 1 1145 1147
595 1 1148 1149
596 1 1148 1150
597 1 1151 1152
598 1 1151 1153
599 1 1154 1155
600 1 1154 1156
601 1 1157 1158
602 1 1157 1159
603 1 1160 1161
604 1 1160 1162
605 1 1163 1164
606 1 1163 1165
607 1 1166 1167
608 1 1166 1168
609 1 1169 1170
610 1 1169 1171
611 1 1172 1173
612 1 1172 1174
613 1 1175 1176
614 1 1175 1177
615 1 1178 1179
616 1 1178 1180
617 1 1181 1182
618 1 1181 1183
619 1 1184 1185
620 1 1184 1186
621 1 1187 1188
622 1 1187 1189
623 1 1190 1191
624 1 1190 1192
625 1 1193 1194
626 1 1193 1195
627 1 1196 1197
628 1 1196 1198
629 1 1199 1200
630 1 1199 1201
631 1 1202 1203
632 1 1202 1204
633 1 1205 1206
634 1 1205 1207
635 1 1208 1209
636 1 1208 1210
637 1 1211 1212
638 1 1211 1213
639 1 1214 1215
640 1 1214 1216
641 1 1217 1218
642 1 1217 1219
643 1 1220 1221
644 1 1220 1222
645 1 1223 1224
646 1 1223 1225
647 1 1226 1227
648 1 1226 1228
649 1 1229 1230
650 1 1229 1231
651 1 1232 1233
652 1 1232 1234
653 1 1235 1236
654 1 1235 1237
655 1 1238 1239
656 1 1238 1240
657 1 1241 1242
658 1 1241 1243
659 1 1244 1245
660 1 1244 1246
661 1 1247 1248
662 1 1247 1249
663 1 1250 1251
664 1 1250 1252
665 1 1253 1254
666 1 1253 1255
667 1 1256 1257
668 1 1256 1258
669 1 1259 1260
670 1 1259 1261
671 1 1262 1263
672 1 1262 1264
673 1 1265 1266
674 1 1265 1267
675 1 1268 1269
676 1 1268 1270
677 1 1271 1272
678 1 1271 1273
679 1 1274 1275
680 1 1274 1276
681 1 1277 1278
682 1 1277 1279
683 1 1280 1281
684 1 1280 1282
685 1 1283 1284
686 1 1283 1285
687 1 1286 1287
688 1 1286 1288
689 1 1289 1290
690 1 1289 1291
691 1 1292 1293
692 1 1292 1294
693 1 1295 1296
694 1 1295 1297
695 1 1298 1299
696 1 1298 1300
697 1 1301 1302
698 1 1301 1303
699 1 1304 1305
700 1 1304 1306
701 1 1307 1308
702 1 1307 1309
703 1 1310 1311
704 1 1310 1312
705 1 1313 1314
706 1 1313 1315
707 1 1316 1317
708 1 1316 1318
709 1 1319 1320
710 1 1319 1321
711 1 1322 1323
712 1 1322 1324
713 1 1325 1326
714 1 1325 1327
715 1 1328 1329
716 1 1328 1330
717 1 1331 1332
718 1 1331 1333
719 1 1334 1335
720 1 1334 1336

Angles

1 1 258 257 259
2 1 261 260 262
3 1 264 263 265
4 1 267 266 268
5 1 270 269 271
6 1 273 272 274
7 1 276 275 277
8 1 279 278 280
9 1 282 281 283
10 1 285 284 286
11 1 288 287 289
12 1 291 290 292
13 1 294 293 295
14 1 297 296 298
15 1 300 299 301
16 1 303 302 304
17 1 306 305 307
18 1 309 308 310
19 1 312 311 313
20 1 315 314 316
21 1 318 317 319
22 1 321 320 322
23 1 324 323 325
24 1 327 326 328
25 1 330 329 331
26 1 333 332 334
27 1 336 335 337
28 1 339 338 340
29 1 342 341 343
30 1 345 344 346
31 1 348 347 349
32 1 351 350 352
33 1 354 353 355
34 1 357 356 358
35 1 360 359 361
36 1 363 362 364
37 1 366 365 367
38 1 369 368 370
39 1 372 371 373
40 1 375 374 376
41 1 378 377 379
42 1 381 380 382
43 1 384 383 385
44 1 387 386 388
45 1 390 389 391
46 1 393 392 394
47 1 396 395 397
48 1 399 398 400
49 1 402 401 403
50 1 405 404 406
51 1 408 407 409
52 1 411 410 412
53 1 414 413 415
54 1 417 416 418
55 1 420 419 421
56 1 423 422 424
57 1 426 425 427
58 1 429 428 430
59 1 432 431 433
60 1 435 434 436
61 1 438 437 439
62 1 441 440 442
63 1 444 443 445
64 1 447 446 448
65 1 450 449 451
66 1 453 452 454
67 1 456 455 457
68 1 459 458 460
69 1 462 461 463
70 1 465 464 466
71 1 468 467 469
72 1 471 470 472
73 1 474 473 475
74 1 477 476 478
75 1 480 479 481
76 1 483 482 484
77 1 486 485 487
78 1 489 488 490
79 1 492 491 493
80 1 495 494 496
81 1 498 497 499
82 1 501 500 502
83 1 504 503 505
84 1 507 506 508
85 1 510 509 511
86 1 513 512 514
87 1 516 515 517
88 1 519 518 520
89 1 522 521 523
90 1 525 524 526
91 1 528 527 529
92 1 531 530 532
93 1 534 533 535
94 1 537 536 538
95 1 540 539 541
96 1 543 542 544
97 1 546 545 547
98 1 549 548 550
99 1 552 551 553
100 1 555 554 556
101 1 558 557 559
102 1 561 560 562
103 1 564 563 565
104 1 567 566 568
105 1 570 569 571
106 1 573 572 574
107 1 576 575 577
108 1 579 578 580
109 1 582 581 583
110 1 585 584 586
111 1 588 587 589
112 1 591 590 592
113 1 594 593 595
114 1 597 596 598
115 1 600 599 601
116 1 603 602 604
117 1 606 605 607
118 1 609 608 610
119 1 612 611 613
120 1 615 614 616
121 1 618 617 619
122 1 621 620 622
123 1 624 623 625
124 1 627 626 628
125 1 630 629 631
126 1 633 632 634
127 1 636 635 637
128 1 639 638 640
129 1 642 641 643
130 1 645 644 646
131 1 648 647 649
132 1 651 650 652
133 1 654 653 655
134 1 657 656 658
135 1 660 659 661
136 1 663 662 664
137 1 666 665 667
138 1 669 668 670
139 1 672 671 673
140 1 675 674 676
141 1 678 677 679
142 1 681 680 682
143 1 684 683 685
144 1 687 686 688
145 1 690 689 691
146 1 693 692 694
147 1 696 695 697
148 1 699 698 700
149 1 702 701 703
150 1 705 704 706
151 1 708 707 709
152 1 711 710 712
153 1 714 713 715
154 1 717 716 718
155 1 720 719 721
156 1 723 722 724
157 1 726 725 727
158 1 729 728 730
159 1 732 731 733
160 1 735 734 736
161 1 738 737 739
162 1 741 740 742
163 1 744 743 745
164 1 747 746 748
165 1 750 749 751
166 1 753 752 754
167 1 756 755 757
168 1 759 758 760
169 1 762 761 763
170 1 765 764 766
171 1 768 767 769
172 1 771 770 772
173 1 774 773 775
174 1 777 776 778
175 1 780 779 781
176 1 783 782 784
177 1 786 785 787
178 1 789 788 790
179 1 792 791 793
180 1 795 794 796
181 1 798 797 799
182 1 801 800 802
183 1 804 803 805
184 1 807 806 808
185 1 810 809 811
186 1 813 812 814
187 1 816 815 817
188 1 819 818 820
189 1 822 821 823
190 1 825 824 826
191 1 828 827 829
192 1 831 830 832
193 1 834 833 835
194 1 837 836 838
195 1 840 839 841
196 1 843 842 844
197 1 846 845 847
198 1 849 848 850
199 1 852 851 853
200 1 855 854 856
201 1 858 857 859
202 1 861 860 862
203 1 864 863 865
204 1 867 866 868
205 1 870 869 871
206 1 873 872 874
207 1 876 875 877
208 1 879 878 880
209 1 882 881 883
210 1 885 884 886
211 1 888 887 889
212 1 891 890 892
213 1 894 893 895
214 1 897 896 898
215 1 900 899 901
216 1 903 902 904
217 1 906 905 907
218 1 909 908 910
219 1 912 911 913
220 1 915 914 916
221 1 918 917 919
222 1 921 920 922
223 1 924 923 925
224 1 927 926 928
225 1 930 929 931
226 1 933 932 934
227 1 936 935 937
228 1 939 938 940
229 1 942 941 943
230 1 945 944 946
231 1 948 947 949
232 1 951 950 952
233 1 954 953 955
234 1 957 956 958
235 1 960 959 961
236 1 963 962 964
237 1 966 965 967
238 1 969 968 970
239 1 972 971 973
240 1 975 974 976
241 1 978 977 979
242 1 981 980 982
243 1 984 983 985
244 1 987 986 988
245 1 990 989 991
246 1 993 992 994
247 1 996 995 997
248 1 999 998 1000
249 1 1002 1001 1003
250 1 1005 1004 1006
251 1 1008 1007 1009
252 1 1011 1010 1012
253 1 1014 1013 1015
254 1 1017 1016 1018
255 1 1020 1019 1021
256 1 1023 1022 1024
257 1 1026 1025 1027
258 1 1029 1028 1030
259 1 1032 1031 1033
260 1 1035 1034 1036
261 1 1038 1037 1039
262 1 1041 1040 1042
263 1 1044 1043 1045
264 1 1047 1046 1048
265 1 1050 1049 1051
266 1 1053 1052 1054
267 1 1056 1055 1057
268 1 1059 1058 1060
269 1 1062 1061 1063
270 1 1065 1064 1066
271 1 1068 1067 1069
272 1 1071 1070 1072
273 1 1074 1073 1075
274 1 1077 1076 1078
275 1 1080 1079 1081
276 1 1083 1082 1084
277 1 1086 1085 1087
278 1 1089 1088 1090
279 1 1092 1091 1093
280 1 1095 1094 1096
281 1 1098 1097 1099
282 1 1101 1100 1102
283 1 1104 1103 1105
284 1 1107 1106 1108
285 1 1110 1109 1111
286 1 1113 1112 1114
287 1 1116 1115 1117
288 1 1119 1118 1120
289 1 1122 1121 1123
290 1 1125 1124 1126
291 1 1128 1127 1129
292 1 1131 1130 1132
293 1 1134 1133 1135
294 1 1137 1136 1138
295 1 1140 1139 1141
296 1 1143 1142 1144
297 1 1146 1145 1147
298 1 1149 1148 1150
299 1 1152 1151 1153
300 1 1155 1154 1156
301 1 1158 1157 1159
302 1 1161 1160 1162
303 1 1164 1163 1165
304 1 1167 1166 1168
305 1 1170 1169 1171
306 1 1173 1172 1174
307 1 1176 1175 1177
308 1 1179 1178 1180
309 1 1182 1181 1183
310 1 1185 1184 1186
311 1 1188 1187 1189
312 1 1191 1190 1192
313 1 1194 1193 1195
314 1 1197 1196 1198
315 1 1200 1199 1201
316 1 1203 1202 1204
317 1 1206 1205 1207
318 1 1209 1208 1210
319 1 1212 1211 1213
320 1 1215 1214 1216
321 1 1218 1217 1219
322 1 1221 1220 1222
323 1 1224 1223 1225
324 1 1227 1226 1228
325 1 1230 1229 1231
326 1 1233 1232 1234
327 1 1236 1235 1237
328 1 1239 1238 1240
329 1 1242 1241 1243
330 1 1245 1244 1246
331 1 1248 1247 1249
332 1 1251 1250 1252
333 1 1254 1253 1255
334 1 1257 1256 1258
335 1 1260 1259 1261
336 1 1263 1262 1264
337 1 1266 1265 1267
338 1 1269 1268 1270
339 1 1272 1271 1273
340 1 1275 1274 1276
341 1 1278 1277 1279
342 1 1281 1280 1282
343 1 1284 1283 1285
344 1 1287 1286 1288
345 1 1290 1289 1291
346 1 1293 1292 1294
347 1 1296 1295 1297
348 1 1299 1298 1300
349 1 1302 1301 1303
350 1 1305 1304 1306
351 1 1308 1307 1309
352 1 1311 1310 1312
353 1 1314 1313 1315
354 1 1317 1316 1318
355 1 1320 1319 1321
356 1 1323 1322 1324
357 1 1326 1325 1327
358 1 1329 1328 1330
359 1 1332 1331 1333
360 1 1335 1334 1336

